     Program PWSCF v.7.1 starts on 30Jan2023 at 16:45:55

     Waiting for input...
     Reading input from standard input

     Current dimensions of program PWSCF are:
     Max number of different atomic species (ntypx) = 10
     Max number of k-points (npk) =  40000
     Max angular momentum in pseudopotentials (lmaxx) =  4

     R & G space division:  proc/nbgrp/npool/nimage =      20
     Subspace diagonalization in iterative solution of the eigenvalue problem:
     a serial algorithm will be used

     Using Slab Decomposition

     bravais-lattice index     =            2
     lattice parameter (alat)  =      10.4474  a.u.
     unit-cell volume          =     285.0788 (a.u.)^3
     number of atoms/cell      =            2
     number of atomic types    =            2
     number of electrons       =         8.00
     number of Kohn-Sham states=           32
     kinetic-energy cutoff     =      80.0000  Ry
     charge density cutoff     =     320.0000  Ry
     scf convergence threshold =      1.0E-10
     mixing beta               =       0.1500
     number of iterations used =            8  plain     mixing
     Exchange-correlation= SLA-PZ-NOGX-NOGC
                           (   1   1   0   0   0   0   0)

     celldm(1)=  10.447402  celldm(2)=   0.000000  celldm(3)=   0.000000
     celldm(4)=   0.000000  celldm(5)=   0.000000  celldm(6)=   0.000000

     crystal axes: (cart. coord. in units of alat)
               a(1) = (  -0.500000   0.000000   0.500000 )
               a(2) = (   0.000000   0.500000   0.500000 )
               a(3) = (  -0.500000   0.500000   0.000000 )

     reciprocal axes: (cart. coord. in units 2 pi/alat)
               b(1) = ( -1.000000 -1.000000  1.000000 )
               b(2) = (  1.000000  1.000000  1.000000 )
               b(3) = ( -1.000000  1.000000 -1.000000 )

     PseudoPot. # 1 for Ga read from file:
     ../../pseudo/Ga.pz-hgh.upf
     MD5 check sum: 9a76aebca20297769771d7f9bb2cf22c
     Pseudo is Norm-conserving, Zval =  3.0
     Generated in analytical, separable form
     Using radial grid of 1205 points,  6 beta functions with:
                l(1) =   0
                l(2) =   0
                l(3) =   0
                l(4) =   1
                l(5) =   1
                l(6) =   2

     PseudoPot. # 2 for As read from file:
     ../../pseudo/As.pz-hgh.upf
     MD5 check sum: 8bce9ee3be4f31c0b3268c76e624ca74
     Pseudo is Norm-conserving, Zval =  5.0
     Generated in analytical, separable form
     Using radial grid of 1209 points,  6 beta functions with:
                l(1) =   0
                l(2) =   0
                l(3) =   0
                l(4) =   1
                l(5) =   1
                l(6) =   2

     atomic species   valence    mass     pseudopotential
        Ga             3.00    68.92600     Ga( 1.00)
        As             5.00    74.92200     As( 1.00)

     24 Sym. Ops. (no inversion) found

   Cartesian axes

     site n.     atom                  positions (alat units)
         1           Ga  tau(   1) = (   0.0000000   0.0000000   0.0000000  )
         2           As  tau(   2) = (  -0.2500000   0.2500000   0.2500000  )

     number of k points=    60
                       cart. coord. in units 2pi/alat
        k(    1) = (  -0.0625000   0.0625000   0.0625000), wk =   0.0078125
        k(    2) = (  -0.1875000   0.1875000  -0.0625000), wk =   0.0234375
        k(    3) = (  -0.3125000   0.3125000  -0.1875000), wk =   0.0234375
        k(    4) = (  -0.4375000   0.4375000  -0.3125000), wk =   0.0234375
        k(    5) = (   0.4375000  -0.4375000   0.5625000), wk =   0.0234375
        k(    6) = (   0.3125000  -0.3125000   0.4375000), wk =   0.0234375
        k(    7) = (   0.1875000  -0.1875000   0.3125000), wk =   0.0234375
        k(    8) = (   0.0625000  -0.0625000   0.1875000), wk =   0.0234375
        k(    9) = (  -0.0625000   0.3125000   0.0625000), wk =   0.0234375
        k(   10) = (  -0.1875000   0.4375000  -0.0625000), wk =   0.0468750
        k(   11) = (  -0.3125000   0.5625000  -0.1875000), wk =   0.0468750
        k(   12) = (   0.5625000  -0.3125000   0.6875000), wk =   0.0468750
        k(   13) = (   0.4375000  -0.1875000   0.5625000), wk =   0.0468750
        k(   14) = (   0.3125000  -0.0625000   0.4375000), wk =   0.0468750
        k(   15) = (   0.1875000   0.0625000   0.3125000), wk =   0.0468750
        k(   16) = (  -0.0625000   0.5625000   0.0625000), wk =   0.0234375
        k(   17) = (  -0.1875000   0.6875000  -0.0625000), wk =   0.0468750
        k(   18) = (   0.6875000  -0.1875000   0.8125000), wk =   0.0468750
        k(   19) = (   0.5625000  -0.0625000   0.6875000), wk =   0.0468750
        k(   20) = (   0.4375000   0.0625000   0.5625000), wk =   0.0468750
        k(   21) = (   0.3125000   0.1875000   0.4375000), wk =   0.0468750
        k(   22) = (  -0.0625000   0.8125000   0.0625000), wk =   0.0234375
        k(   23) = (   0.8125000  -0.0625000   0.9375000), wk =   0.0468750
        k(   24) = (   0.6875000   0.0625000   0.8125000), wk =   0.0468750
        k(   25) = (   0.5625000   0.1875000   0.6875000), wk =   0.0468750
        k(   26) = (   0.4375000   0.3125000   0.5625000), wk =   0.0468750
        k(   27) = (  -0.0625000  -0.9375000   0.0625000), wk =   0.0234375
        k(   28) = (  -0.1875000  -0.8125000  -0.0625000), wk =   0.0468750
        k(   29) = (  -0.3125000  -0.6875000  -0.1875000), wk =   0.0468750
        k(   30) = (  -0.0625000  -0.6875000   0.0625000), wk =   0.0234375
        k(   31) = (  -0.1875000  -0.5625000  -0.0625000), wk =   0.0468750
        k(   32) = (  -0.0625000  -0.4375000   0.0625000), wk =   0.0234375
        k(   33) = (  -0.1875000   0.1875000   0.1875000), wk =   0.0078125
        k(   34) = (  -0.3125000   0.3125000   0.0625000), wk =   0.0234375
        k(   35) = (  -0.4375000   0.4375000  -0.0625000), wk =   0.0234375
        k(   36) = (   0.4375000  -0.4375000   0.8125000), wk =   0.0234375
        k(   37) = (   0.3125000  -0.3125000   0.6875000), wk =   0.0234375
        k(   38) = (   0.1875000  -0.1875000   0.5625000), wk =   0.0234375
        k(   39) = (  -0.1875000   0.4375000   0.1875000), wk =   0.0234375
        k(   40) = (  -0.3125000   0.5625000   0.0625000), wk =   0.0468750
        k(   41) = (   0.5625000  -0.3125000   0.9375000), wk =   0.0468750
        k(   42) = (   0.4375000  -0.1875000   0.8125000), wk =   0.0468750
        k(   43) = (   0.3125000  -0.0625000   0.6875000), wk =   0.0468750
        k(   44) = (  -0.1875000   0.6875000   0.1875000), wk =   0.0234375
        k(   45) = (   0.6875000  -0.1875000   1.0625000), wk =   0.0468750
        k(   46) = (   0.5625000  -0.0625000   0.9375000), wk =   0.0468750
        k(   47) = (   0.4375000   0.0625000   0.8125000), wk =   0.0468750
        k(   48) = (  -0.1875000  -1.0625000   0.1875000), wk =   0.0234375
        k(   49) = (  -0.3125000  -0.9375000   0.0625000), wk =   0.0468750
        k(   50) = (  -0.1875000  -0.8125000   0.1875000), wk =   0.0234375
        k(   51) = (  -0.3125000   0.3125000   0.3125000), wk =   0.0078125
        k(   52) = (  -0.4375000   0.4375000   0.1875000), wk =   0.0234375
        k(   53) = (   0.4375000  -0.4375000   1.0625000), wk =   0.0234375
        k(   54) = (   0.3125000  -0.3125000   0.9375000), wk =   0.0234375
        k(   55) = (  -0.3125000   0.5625000   0.3125000), wk =   0.0234375
        k(   56) = (   0.5625000  -0.3125000   1.1875000), wk =   0.0468750
        k(   57) = (   0.4375000  -0.1875000   1.0625000), wk =   0.0468750
        k(   58) = (  -0.3125000  -1.1875000   0.3125000), wk =   0.0234375
        k(   59) = (  -0.4375000   0.4375000   0.4375000), wk =   0.0078125
        k(   60) = (   0.4375000  -0.4375000   1.3125000), wk =   0.0234375

     Initial potential from superposition of free atoms

     starting charge       6.0000, renormalised to       8.0000
     Starting wfcs are   18 randomized atomic wfcs +   14 random wfcs

     Self-consistent Calculation

     iteration #  1     ecut=    80.00 Ry     beta= 0.15
     Davidson diagonalization with overlap
     ethr =  1.00E-02,  avg # of iterations =  6.7

     total energy              =     -17.36071818 Ry
     estimated scf accuracy    <       0.12090835 Ry

[...]

     iteration #  7     ecut=    80.00 Ry     beta= 0.15
     Davidson diagonalization with overlap
     c_bands:  1 eigenvalues not converged
     ethr =  6.12E-10,  avg # of iterations =  7.6

[...]

     iteration #  8     ecut=    80.00 Ry     beta= 0.15
     Davidson diagonalization with overlap
     c_bands:  1 eigenvalues not converged
     ethr =  2.98E-10,  avg # of iterations =  1.3

     total energy              =     -17.33754028 Ry
     estimated scf accuracy    <          4.0E-10 Ry

     iteration #  9     ecut=    80.00 Ry     beta= 0.15
     Davidson diagonalization with overlap
     ethr =  4.97E-12,  avg # of iterations =  4.8

     End of self-consistent calculation

          k =-0.0625 0.0625 0.0625 (  3467 PWs)   bands (ev):

    -7.7777   4.5575   5.2647   5.2647   6.9029   9.2561   9.2793   9.2793
    13.4251  15.3432  15.3432  16.9418  17.7905  17.7905  20.6206  30.3568
    30.6945  30.6945  32.4878  32.4878  33.3024  33.3024  33.7048  34.3480
    35.9896  35.9896  41.5941  43.8726  44.6131  44.6131  45.4509  45.4509

[...]

          k = 0.4375-0.4375 0.5625 (  3445 PWs)   bands (ev):

[...]

          k =-0.4375 0.4375 0.4375 (  3435 PWs)   bands (ev):

[...]

          k = 0.4375-0.4375 1.3125 (  3446 PWs)   bands (ev):

    -5.9112  -1.5212   2.8900   3.9090   7.6075   9.8246  10.6445  13.7680
    15.4726  16.5089  16.6950  19.3901  20.4074  20.9380  24.8092  26.9754
    27.7718  28.2309  29.6652  30.2117  30.8744  31.4600  32.8444  34.3443
    34.8554  35.4739  35.6840  36.6281  39.7815  40.0229  40.0828  41.8520

     highest occupied, lowest unoccupied level (ev):     5.2647    6.5599

!    total energy              =     -17.33754028 Ry
     estimated scf accuracy    <          3.2E-12 Ry

     The total energy is the sum of the following terms:
     one-electron contribution =       3.24972312 Ry
     hartree contribution      =       1.48392988 Ry
     xc contribution           =      -4.84744812 Ry
     ewald contribution        =     -17.22374516 Ry

     convergence has been achieved in   9 iterations

     Forces acting on atoms (cartesian axes, Ry/au):

     atom    1 type  1   force =     0.00000000    0.00000000   -0.00000000
     atom    2 type  2   force =     0.00000000    0.00000000    0.00000000

     Total force =     0.000000     Total SCF correction =     0.000000

     Computing stress (Cartesian axis) and pressure

          total   stress  (Ry/bohr**3)                   (kbar)     P=       -0.03
  -0.00000021   0.00000000  -0.00000000           -0.03        0.00       -0.00
   0.00000000  -0.00000021  -0.00000000            0.00       -0.03       -0.00
  -0.00000000  -0.00000000  -0.00000021           -0.00       -0.00       -0.03

     Writing all to output data dir ./work/GaAs.save/

     General routines

     Parallel routines

   This run was terminated on:  16:46:10  30Jan2023

   JOB DONE.