     Program PWSCF v.7.1 starts on 30Jan2023 at 16:20:37

     Waiting for input...
     Reading input from standard input

     Current dimensions of program PWSCF are:
     Max number of different atomic species (ntypx) = 10
     Max number of k-points (npk) =  40000
     Max angular momentum in pseudopotentials (lmaxx) =  4

     R & G space division:  proc/nbgrp/npool/nimage =      20
     Subspace diagonalization in iterative solution of the eigenvalue problem:
     a serial algorithm will be used

     Using Slab Decomposition

     bravais-lattice index     =            2
     lattice parameter (alat)  =      10.6837  a.u.
     unit-cell volume          =     304.8664 (a.u.)^3
     number of atoms/cell      =            2
     number of atomic types    =            2
     number of electrons       =         8.00
     number of Kohn-Sham states=            4
     kinetic-energy cutoff     =      80.0000  Ry
     charge density cutoff     =     320.0000  Ry
     scf convergence threshold =      1.0E-10
     mixing beta               =       0.1500
     number of iterations used =            8  plain     mixing
     energy convergence thresh.=      1.0E-06
     force convergence thresh. =      1.0E-05
     press convergence thresh. =      5.0E-02
     Exchange-correlation= SLA-PZ-NOGX-NOGC
                           (   1   1   0   0   0   0   0)
     nstep                     =          100

     celldm(1)=  10.683737  celldm(2)=   0.000000  celldm(3)=   0.000000
     celldm(4)=   0.000000  celldm(5)=   0.000000  celldm(6)=   0.000000

     crystal axes: (cart. coord. in units of alat)
               a(1) = (  -0.500000   0.000000   0.500000 )
               a(2) = (   0.000000   0.500000   0.500000 )
               a(3) = (  -0.500000   0.500000   0.000000 )

     reciprocal axes: (cart. coord. in units 2 pi/alat)
               b(1) = ( -1.000000 -1.000000  1.000000 )
               b(2) = (  1.000000  1.000000  1.000000 )
               b(3) = ( -1.000000  1.000000 -1.000000 )

     PseudoPot. # 1 for Ga read from file:
     ../../pseudo/Ga.pz-hgh.upf
     MD5 check sum: 9a76aebca20297769771d7f9bb2cf22c
     Pseudo is Norm-conserving, Zval =  3.0
     Generated in analytical, separable form
     Using radial grid of 1205 points,  6 beta functions with:
                l(1) =   0
                l(2) =   0
                l(3) =   0
                l(4) =   1
                l(5) =   1
                l(6) =   2

     PseudoPot. # 2 for As read from file:
     ../../pseudo/As.pz-hgh.upf
     MD5 check sum: 8bce9ee3be4f31c0b3268c76e624ca74
     Pseudo is Norm-conserving, Zval =  5.0
     Generated in analytical, separable form
     Using radial grid of 1209 points,  6 beta functions with:
                l(1) =   0
                l(2) =   0
                l(3) =   0
                l(4) =   1
                l(5) =   1
                l(6) =   2

     atomic species   valence    mass     pseudopotential
        Ga             3.00    68.92600     Ga( 1.00)
        As             5.00    74.92200     As( 1.00)

     24 Sym. Ops. (no inversion) found

   Cartesian axes

     site n.     atom                  positions (alat units)
         1           Ga  tau(   1) = (   0.0000000   0.0000000   0.0000000  )
         2           As  tau(   2) = (  -0.2500000   0.2500000   0.2500000  )

     number of k points=    60
                       cart. coord. in units 2pi/alat
        k(    1) = (  -0.0625000   0.0625000   0.0625000), wk =   0.0078125
        k(    2) = (  -0.1875000   0.1875000  -0.0625000), wk =   0.0234375
        k(    3) = (  -0.3125000   0.3125000  -0.1875000), wk =   0.0234375
        k(    4) = (  -0.4375000   0.4375000  -0.3125000), wk =   0.0234375
        k(    5) = (   0.4375000  -0.4375000   0.5625000), wk =   0.0234375
        k(    6) = (   0.3125000  -0.3125000   0.4375000), wk =   0.0234375
        k(    7) = (   0.1875000  -0.1875000   0.3125000), wk =   0.0234375
        k(    8) = (   0.0625000  -0.0625000   0.1875000), wk =   0.0234375
        k(    9) = (  -0.0625000   0.3125000   0.0625000), wk =   0.0234375
        k(   10) = (  -0.1875000   0.4375000  -0.0625000), wk =   0.0468750
        k(   11) = (  -0.3125000   0.5625000  -0.1875000), wk =   0.0468750
        k(   12) = (   0.5625000  -0.3125000   0.6875000), wk =   0.0468750
        k(   13) = (   0.4375000  -0.1875000   0.5625000), wk =   0.0468750
        k(   14) = (   0.3125000  -0.0625000   0.4375000), wk =   0.0468750
        k(   15) = (   0.1875000   0.0625000   0.3125000), wk =   0.0468750
        k(   16) = (  -0.0625000   0.5625000   0.0625000), wk =   0.0234375
        k(   17) = (  -0.1875000   0.6875000  -0.0625000), wk =   0.0468750
        k(   18) = (   0.6875000  -0.1875000   0.8125000), wk =   0.0468750
        k(   19) = (   0.5625000  -0.0625000   0.6875000), wk =   0.0468750
        k(   20) = (   0.4375000   0.0625000   0.5625000), wk =   0.0468750
        k(   21) = (   0.3125000   0.1875000   0.4375000), wk =   0.0468750
        k(   22) = (  -0.0625000   0.8125000   0.0625000), wk =   0.0234375
        k(   23) = (   0.8125000  -0.0625000   0.9375000), wk =   0.0468750
        k(   24) = (   0.6875000   0.0625000   0.8125000), wk =   0.0468750
        k(   25) = (   0.5625000   0.1875000   0.6875000), wk =   0.0468750
        k(   26) = (   0.4375000   0.3125000   0.5625000), wk =   0.0468750
        k(   27) = (  -0.0625000  -0.9375000   0.0625000), wk =   0.0234375
        k(   28) = (  -0.1875000  -0.8125000  -0.0625000), wk =   0.0468750
        k(   29) = (  -0.3125000  -0.6875000  -0.1875000), wk =   0.0468750
        k(   30) = (  -0.0625000  -0.6875000   0.0625000), wk =   0.0234375
        k(   31) = (  -0.1875000  -0.5625000  -0.0625000), wk =   0.0468750
        k(   32) = (  -0.0625000  -0.4375000   0.0625000), wk =   0.0234375
        k(   33) = (  -0.1875000   0.1875000   0.1875000), wk =   0.0078125
        k(   34) = (  -0.3125000   0.3125000   0.0625000), wk =   0.0234375
        k(   35) = (  -0.4375000   0.4375000  -0.0625000), wk =   0.0234375
        k(   36) = (   0.4375000  -0.4375000   0.8125000), wk =   0.0234375
        k(   37) = (   0.3125000  -0.3125000   0.6875000), wk =   0.0234375
        k(   38) = (   0.1875000  -0.1875000   0.5625000), wk =   0.0234375
        k(   39) = (  -0.1875000   0.4375000   0.1875000), wk =   0.0234375
        k(   40) = (  -0.3125000   0.5625000   0.0625000), wk =   0.0468750
        k(   41) = (   0.5625000  -0.3125000   0.9375000), wk =   0.0468750
        k(   42) = (   0.4375000  -0.1875000   0.8125000), wk =   0.0468750
        k(   43) = (   0.3125000  -0.0625000   0.6875000), wk =   0.0468750
        k(   44) = (  -0.1875000   0.6875000   0.1875000), wk =   0.0234375
        k(   45) = (   0.6875000  -0.1875000   1.0625000), wk =   0.0468750
        k(   46) = (   0.5625000  -0.0625000   0.9375000), wk =   0.0468750
        k(   47) = (   0.4375000   0.0625000   0.8125000), wk =   0.0468750
        k(   48) = (  -0.1875000  -1.0625000   0.1875000), wk =   0.0234375
        k(   49) = (  -0.3125000  -0.9375000   0.0625000), wk =   0.0468750
        k(   50) = (  -0.1875000  -0.8125000   0.1875000), wk =   0.0234375
        k(   51) = (  -0.3125000   0.3125000   0.3125000), wk =   0.0078125
        k(   52) = (  -0.4375000   0.4375000   0.1875000), wk =   0.0234375
        k(   53) = (   0.4375000  -0.4375000   1.0625000), wk =   0.0234375
        k(   54) = (   0.3125000  -0.3125000   0.9375000), wk =   0.0234375
        k(   55) = (  -0.3125000   0.5625000   0.3125000), wk =   0.0234375
        k(   56) = (   0.5625000  -0.3125000   1.1875000), wk =   0.0468750
        k(   57) = (   0.4375000  -0.1875000   1.0625000), wk =   0.0468750
        k(   58) = (  -0.3125000  -1.1875000   0.3125000), wk =   0.0234375
        k(   59) = (  -0.4375000   0.4375000   0.4375000), wk =   0.0078125
        k(   60) = (   0.4375000  -0.4375000   1.3125000), wk =   0.0234375

     Initial potential from superposition of free atoms

     starting charge       6.0000, renormalised to       8.0000
     Starting wfcs are   18 randomized atomic wfcs

     Self-consistent Calculation

     iteration #  1     ecut=    80.00 Ry     beta= 0.15
     Davidson diagonalization with overlap
     ethr =  1.00E-02,  avg # of iterations =  1.1

     total energy              =     -17.35911196 Ry
     estimated scf accuracy    <       0.13284681 Ry

[...]

     negative rho (up, down):  6.557E-08 0.000E+00

[...]

     End of self-consistent calculation

          k =-0.0625 0.0625 0.0625 (  3707 PWs)   bands (ev):

    -7.9957   3.7717   4.5768   4.5768

[...]

          k = 0.4375-0.4375 0.5625 (  3685 PWs)   bands (ev):

[...]

     highest occupied level (ev):     4.5768

!    total energy              =     -17.33440994 Ry
     estimated scf accuracy    <          4.0E-12 Ry

     The total energy is the sum of the following terms:
     one-electron contribution =       2.72496876 Ry
     hartree contribution      =       1.56702269 Ry
     xc contribution           =      -4.78366235 Ry
     ewald contribution        =     -16.84273905 Ry

     convergence has been achieved in  29 iterations

     Computing stress (Cartesian axis) and pressure

          total   stress  (Ry/bohr**3)                   (kbar)     P=      -43.80
  -0.00029772   0.00000000   0.00000000          -43.80        0.00        0.00
   0.00000000  -0.00029772   0.00000000            0.00      -43.80        0.00
   0.00000000   0.00000000  -0.00029772            0.00        0.00      -43.80

     BFGS Geometry Optimization
     Energy error            =      0.0E+00 Ry
     Gradient error          =      0.0E+00 Ry/Bohr
     Cell gradient error     =      4.4E+01 kbar

     number of scf cycles    =   1
     number of bfgs steps    =   0

     enthalpy           new  =     -17.3344099421 Ry

     new trust radius        =       0.0259913203 bohr
ibrav =      2
 celldm(1) =     10.60421848
Input lattice vectors:
    -0.49627854    -0.00000000     0.49627854
    -0.00000000     0.49627854     0.49627854
    -0.49627854     0.49627854     0.00000000
New lattice vectors in INITIAL alat:
    -0.49627854     0.00000000     0.49627854
     0.00000000     0.49627854     0.49627854
    -0.49627854     0.49627854     0.00000000
New lattice vectors in NEW alat (for information only):
    -0.50000000     0.00000000     0.50000000
     0.00000000     0.50000000     0.50000000
    -0.50000000     0.50000000     0.00000000
Discrepancy in bohr =     0.000000    0.000000    0.000000
     new conv_thr            =            1.0E-10 Ry

     new unit-cell volume =    298.10963 a.u.^3 (    44.17529 Ang^3 )
     density =      5.40721 g/cm^3

CELL_PARAMETERS (alat= 10.68373672)
  -0.496278538   0.000000000   0.496278538
   0.000000000   0.496278538   0.496278538
  -0.496278538   0.496278538   0.000000000

ATOMIC_POSITIONS (crystal)
Ga            0.0000000000        0.0000000000        0.0000000000    0   0   0
As            0.2500000000        0.2500000000        0.2500000000    0   0   0

     Writing config-only to output data dir ./work/GaAs.save/
     NEW-OLD atomic charge density approx. for the potential
     extrapolated charge    7.86401, renormalised to    8.00000

[...]

     Energy error            =      1.7E-03 Ry
     Gradient error          =      0.0E+00 Ry/Bohr
     Cell gradient error     =      3.1E+01 kbar

[...]

     enthalpy           old  =     -17.3344099421 Ry
     enthalpy           new  =     -17.3361274694 Ry

     CASE: enthalpy          _new < enthalpy          _old

[...]

     Energy error            =      8.4E-05 Ry
     Gradient error          =      0.0E+00 Ry/Bohr
     Cell gradient error     =      6.8E-01 kbar

     number of scf cycles    =   4
     number of bfgs steps    =   3

     enthalpy           old  =     -17.3374603706 Ry
     enthalpy           new  =     -17.3375445235 Ry

     CASE: enthalpy          _new < enthalpy          _old

     new trust radius        =       0.0010239639 bohr
ibrav =      2
 celldm(1) =     10.44740196
Input lattice vectors:
    -0.48893951     0.00000000     0.48893951
    -0.00000000     0.48893951     0.48893951
    -0.48893951     0.48893951    -0.00000000
New lattice vectors in INITIAL alat:
    -0.48893951     0.00000000     0.48893951
     0.00000000     0.48893951     0.48893951
    -0.48893951     0.48893951     0.00000000
New lattice vectors in NEW alat (for information only):
    -0.50000000     0.00000000     0.50000000
     0.00000000     0.50000000     0.50000000
    -0.50000000     0.50000000     0.00000000
Discrepancy in bohr =     0.000000    0.000000    0.000000
     new conv_thr            =            1.0E-12 Ry

     new unit-cell volume =    285.07880 a.u.^3 (    42.24432 Ang^3 )
     density =      5.65437 g/cm^3

[...]

ATOMIC_POSITIONS (crystal)
Ga            0.0000000000        0.0000000000        0.0000000000    0   0   0
As            0.2500000000        0.2500000000        0.2500000000    0   0   0

     Writing config-only to output data dir ./work/GaAs.save/
     NEW-OLD atomic charge density approx. for the potential
     extrapolated charge    8.00546, renormalised to    8.00000

[...]

     Threshold (ethr) on eigenvalues was too large:
     Diagonalizing with lowered threshold

     Davidson diagonalization with overlap
     ethr =  6.51E-09,  avg # of iterations =  3.0

[...]

     Energy error            =      5.9E-07 Ry
     Gradient error          =      0.0E+00 Ry/Bohr
     Cell gradient error     =      1.3E-02 kbar
ibrav =      2
 celldm(1) =     10.44740196
Input lattice vectors:
    -0.48893951     0.00000000     0.48893951
     0.00000000     0.48893951     0.48893951
    -0.48893951     0.48893951     0.00000000
New lattice vectors in INITIAL alat:
    -0.48893951     0.00000000     0.48893951
     0.00000000     0.48893951     0.48893951
    -0.48893951     0.48893951     0.00000000
New lattice vectors in NEW alat (for information only):
    -0.50000000     0.00000000     0.50000000
     0.00000000     0.50000000     0.50000000
    -0.50000000     0.50000000     0.00000000
Discrepancy in bohr =     0.000000    0.000000    0.000000

     bfgs converged in   5 scf cycles and   4 bfgs steps
     (criteria: energy <  1.0E-06 Ry, force <  1.0E-05 Ry/Bohr, cell <  5.0E-02 kbar)

     End of BFGS Geometry Optimization

     Final enthalpy           =     -17.3375451106 Ry

     File ./work/GaAs.bfgs deleted, as requested
Begin final coordinates
     new unit-cell volume =    285.07880 a.u.^3 (    42.24432 Ang^3 )
     density =      5.65437 g/cm^3

CELL_PARAMETERS (alat= 10.68373672)
  -0.488939508   0.000000000   0.488939508
   0.000000000   0.488939508   0.488939508
  -0.488939508   0.488939508   0.000000000

ATOMIC_POSITIONS (crystal)
Ga            0.0000000000        0.0000000000        0.0000000000    0   0   0
As            0.2500000000        0.2500000000        0.2500000000    0   0   0
End final coordinates

     Writing config-only to output data dir ./work/GaAs.save/

     Final scf calculation at the relaxed structure.
     The G-vectors are recalculated for the final unit cell
     Results may differ from those at the preceding step.

     Using Slab Decomposition

     bravais-lattice index     =            2
     lattice parameter (alat)  =      10.6837  a.u.
     unit-cell volume          =     285.0788 (a.u.)^3
     number of atoms/cell      =            2
     number of atomic types    =            2
     number of electrons       =         8.00
     number of Kohn-Sham states=            4
     kinetic-energy cutoff     =      80.0000  Ry
     charge density cutoff     =     320.0000  Ry
     scf convergence threshold =      1.0E-12
     mixing beta               =       0.1500
     number of iterations used =            8  plain     mixing
     press convergence thresh. =      5.0E-02
     Exchange-correlation= SLA-PZ-NOGX-NOGC
                           (   1   1   0   0   0   0   0)

     celldm(1)=  10.683737  celldm(2)=   0.000000  celldm(3)=   0.000000
     celldm(4)=   0.000000  celldm(5)=   0.000000  celldm(6)=   0.000000

     crystal axes: (cart. coord. in units of alat)
               a(1) = (  -0.488940   0.000000   0.488940 )
               a(2) = (   0.000000   0.488940   0.488940 )
               a(3) = (  -0.488940   0.488940   0.000000 )

     reciprocal axes: (cart. coord. in units 2 pi/alat)
               b(1) = ( -1.022621 -1.022621  1.022621 )
               b(2) = (  1.022621  1.022621  1.022621 )
               b(3) = ( -1.022621  1.022621 -1.022621 )

     PseudoPot. # 1 for Ga read from file:
     ../../pseudo/Ga.pz-hgh.upf
     MD5 check sum: 9a76aebca20297769771d7f9bb2cf22c
     Pseudo is Norm-conserving, Zval =  3.0
     Generated in analytical, separable form
     Using radial grid of 1205 points,  6 beta functions with:
                l(1) =   0
                l(2) =   0
                l(3) =   0
                l(4) =   1
                l(5) =   1
                l(6) =   2

     PseudoPot. # 2 for As read from file:
     ../../pseudo/As.pz-hgh.upf
     MD5 check sum: 8bce9ee3be4f31c0b3268c76e624ca74
     Pseudo is Norm-conserving, Zval =  5.0
     Generated in analytical, separable form
     Using radial grid of 1209 points,  6 beta functions with:
                l(1) =   0
                l(2) =   0
                l(3) =   0
                l(4) =   1
                l(5) =   1
                l(6) =   2

     atomic species   valence    mass     pseudopotential
        Ga             3.00    68.92600     Ga( 1.00)
        As             5.00    74.92200     As( 1.00)

     24 Sym. Ops. (no inversion) found

   Cartesian axes

     site n.     atom                  positions (alat units)
         1           Ga  tau(   1) = (   0.0000000   0.0000000   0.0000000  )
         2           As  tau(   2) = (  -0.2444698   0.2444698   0.2444698  )

     number of k points=    60
                       cart. coord. in units 2pi/alat
        k(    1) = (  -0.0639138   0.0639138   0.0639138), wk =   0.0078125
        k(    2) = (  -0.1917415   0.1917415  -0.0639138), wk =   0.0234375
        k(    3) = (  -0.3195692   0.3195692  -0.1917415), wk =   0.0234375
        k(    4) = (  -0.4473969   0.4473969  -0.3195692), wk =   0.0234375
        k(    5) = (   0.4473969  -0.4473969   0.5752245), wk =   0.0234375
        k(    6) = (   0.3195692  -0.3195692   0.4473969), wk =   0.0234375
        k(    7) = (   0.1917415  -0.1917415   0.3195692), wk =   0.0234375
        k(    8) = (   0.0639138  -0.0639138   0.1917415), wk =   0.0234375
        k(    9) = (  -0.0639138   0.3195692   0.0639138), wk =   0.0234375
        k(   10) = (  -0.1917415   0.4473969  -0.0639138), wk =   0.0468750
        k(   11) = (  -0.3195692   0.5752245  -0.1917415), wk =   0.0468750
        k(   12) = (   0.5752245  -0.3195692   0.7030522), wk =   0.0468750
        k(   13) = (   0.4473969  -0.1917415   0.5752245), wk =   0.0468750
        k(   14) = (   0.3195692  -0.0639138   0.4473969), wk =   0.0468750
        k(   15) = (   0.1917415   0.0639138   0.3195692), wk =   0.0468750
        k(   16) = (  -0.0639138   0.5752245   0.0639138), wk =   0.0234375
        k(   17) = (  -0.1917415   0.7030522  -0.0639138), wk =   0.0468750
        k(   18) = (   0.7030522  -0.1917415   0.8308799), wk =   0.0468750
        k(   19) = (   0.5752245  -0.0639138   0.7030522), wk =   0.0468750
        k(   20) = (   0.4473969   0.0639138   0.5752245), wk =   0.0468750
        k(   21) = (   0.3195692   0.1917415   0.4473969), wk =   0.0468750
        k(   22) = (  -0.0639138   0.8308799   0.0639138), wk =   0.0234375
        k(   23) = (   0.8308799  -0.0639138   0.9587076), wk =   0.0468750
        k(   24) = (   0.7030522   0.0639138   0.8308799), wk =   0.0468750
        k(   25) = (   0.5752245   0.1917415   0.7030522), wk =   0.0468750
        k(   26) = (   0.4473969   0.3195692   0.5752245), wk =   0.0468750
        k(   27) = (  -0.0639138  -0.9587076   0.0639138), wk =   0.0234375
        k(   28) = (  -0.1917415  -0.8308799  -0.0639138), wk =   0.0468750
        k(   29) = (  -0.3195692  -0.7030522  -0.1917415), wk =   0.0468750
        k(   30) = (  -0.0639138  -0.7030522   0.0639138), wk =   0.0234375
        k(   31) = (  -0.1917415  -0.5752245  -0.0639138), wk =   0.0468750
        k(   32) = (  -0.0639138  -0.4473969   0.0639138), wk =   0.0234375
        k(   33) = (  -0.1917415   0.1917415   0.1917415), wk =   0.0078125
        k(   34) = (  -0.3195692   0.3195692   0.0639138), wk =   0.0234375
        k(   35) = (  -0.4473969   0.4473969  -0.0639138), wk =   0.0234375
        k(   36) = (   0.4473969  -0.4473969   0.8308799), wk =   0.0234375
        k(   37) = (   0.3195692  -0.3195692   0.7030522), wk =   0.0234375
        k(   38) = (   0.1917415  -0.1917415   0.5752245), wk =   0.0234375
        k(   39) = (  -0.1917415   0.4473969   0.1917415), wk =   0.0234375
        k(   40) = (  -0.3195692   0.5752245   0.0639138), wk =   0.0468750
        k(   41) = (   0.5752245  -0.3195692   0.9587076), wk =   0.0468750
        k(   42) = (   0.4473969  -0.1917415   0.8308799), wk =   0.0468750
        k(   43) = (   0.3195692  -0.0639138   0.7030522), wk =   0.0468750
        k(   44) = (  -0.1917415   0.7030522   0.1917415), wk =   0.0234375
        k(   45) = (   0.7030522  -0.1917415   1.0865352), wk =   0.0468750
        k(   46) = (   0.5752245  -0.0639138   0.9587076), wk =   0.0468750
        k(   47) = (   0.4473969   0.0639138   0.8308799), wk =   0.0468750
        k(   48) = (  -0.1917415  -1.0865352   0.1917415), wk =   0.0234375
        k(   49) = (  -0.3195692  -0.9587076   0.0639138), wk =   0.0468750
        k(   50) = (  -0.1917415  -0.8308799   0.1917415), wk =   0.0234375
        k(   51) = (  -0.3195692   0.3195692   0.3195692), wk =   0.0078125
        k(   52) = (  -0.4473969   0.4473969   0.1917415), wk =   0.0234375
        k(   53) = (   0.4473969  -0.4473969   1.0865352), wk =   0.0234375
        k(   54) = (   0.3195692  -0.3195692   0.9587076), wk =   0.0234375
        k(   55) = (  -0.3195692   0.5752245   0.3195692), wk =   0.0234375
        k(   56) = (   0.5752245  -0.3195692   1.2143629), wk =   0.0468750
        k(   57) = (   0.4473969  -0.1917415   1.0865352), wk =   0.0468750
        k(   58) = (  -0.3195692  -1.2143629   0.3195692), wk =   0.0234375
        k(   59) = (  -0.4473969   0.4473969   0.4473969), wk =   0.0078125
        k(   60) = (   0.4473969  -0.4473969   1.3421906), wk =   0.0234375

     Initial potential from superposition of free atoms

     starting charge       6.0000, renormalised to       8.0000
     Starting wfcs are   18 randomized atomic wfcs

     Self-consistent Calculation

[...]

     negative rho (up, down):  1.365E-05 0.000E+00

[...]

     total energy              =     -17.33754028 Ry
     estimated scf accuracy    <          1.6E-10 Ry

     iteration # 26     ecut=    80.00 Ry     beta= 0.15
     Davidson diagonalization with overlap
     ethr =  2.02E-12,  avg # of iterations =  2.1

     End of self-consistent calculation

[...]

          k =-0.4474 0.4474 0.4474 (  3435 PWs)   bands (ev):

[...]

          k = 0.4474-0.4474 1.3422 (  3446 PWs)   bands (ev):

    -5.9112  -1.5212   2.8900   3.9090

     highest occupied level (ev):     5.2647

!    total energy              =     -17.33754028 Ry
     estimated scf accuracy    <          8.2E-13 Ry

     The total energy is the sum of the following terms:
     one-electron contribution =       3.24972285 Ry
     hartree contribution      =       1.48393036 Ry
     xc contribution           =      -4.84744826 Ry
     ewald contribution        =     -17.22374523 Ry

     convergence has been achieved in  26 iterations

     Computing stress (Cartesian axis) and pressure

          total   stress  (Ry/bohr**3)                   (kbar)     P=       -0.03
  -0.00000021  -0.00000000  -0.00000000           -0.03       -0.00       -0.00
  -0.00000000  -0.00000021  -0.00000000           -0.00       -0.03       -0.00
  -0.00000000  -0.00000000  -0.00000021           -0.00       -0.00       -0.03

     Writing all to output data dir ./work/GaAs.save/

     General routines

     Parallel routines

   This run was terminated on:  16:21: 1  30Jan2023

   JOB DONE.