     Program PWSCF v.7.1 starts on 30Jan2023 at 20:30:13

     Waiting for input...
     Reading input from standard input

     Current dimensions of program PWSCF are:
     Max number of different atomic species (ntypx) = 10
     Max number of k-points (npk) =  40000
     Max angular momentum in pseudopotentials (lmaxx) =  4

     R & G space division:  proc/nbgrp/npool/nimage =      20
     Subspace diagonalization in iterative solution of the eigenvalue problem:
     a serial algorithm will be used

     Using Slab Decomposition

     bravais-lattice index     =            2
     lattice parameter (alat)  =      10.8238  a.u.
     unit-cell volume          =     317.0139 (a.u.)^3
     number of atoms/cell      =            2
     number of atomic types    =            2
     number of electrons       =         8.00
     number of Kohn-Sham states=           32
     kinetic-energy cutoff     =      80.0000  Ry
     charge density cutoff     =     320.0000  Ry
     scf convergence threshold =      1.0E-10
     mixing beta               =       0.1500
     number of iterations used =            8  plain     mixing
     Exchange-correlation= SLA-PZ-NOGX-NOGC
                           (   1   1   0   0   0   0   0)

     celldm(1)=  10.823792  celldm(2)=   0.000000  celldm(3)=   0.000000
     celldm(4)=   0.000000  celldm(5)=   0.000000  celldm(6)=   0.000000

     crystal axes: (cart. coord. in units of alat)
               a(1) = (  -0.500000   0.000000   0.500000 )
               a(2) = (   0.000000   0.500000   0.500000 )
               a(3) = (  -0.500000   0.500000   0.000000 )

     reciprocal axes: (cart. coord. in units 2 pi/alat)
               b(1) = ( -1.000000 -1.000000  1.000000 )
               b(2) = (  1.000000  1.000000  1.000000 )
               b(3) = ( -1.000000  1.000000 -1.000000 )

     PseudoPot. # 1 for In read from file:
     ../../pseudo/In.pz-hgh.upf
     MD5 check sum: 6872a669b76e2059a5c804d9a9b24c5c
     Pseudo is Norm-conserving, Zval =  3.0
     Generated in analytical, separable form
     Using radial grid of 1241 points,  6 beta functions with:
                l(1) =   0
                l(2) =   0
                l(3) =   0
                l(4) =   1
                l(5) =   1
                l(6) =   2

     PseudoPot. # 2 for P  read from file:
     ../../pseudo/P.pz-hgh.upf
     MD5 check sum: 95fb0514269fd57292f1f0e003240d1b
     Pseudo is Norm-conserving, Zval =  5.0
     Generated in analytical, separable form
     Using radial grid of 1147 points,  3 beta functions with:
                l(1) =   0
                l(2) =   0
                l(3) =   1

     atomic species   valence    mass     pseudopotential
        In             3.00   114.81800     In( 1.00)
        P              5.00    30.97376     P ( 1.00)

     24 Sym. Ops. (no inversion) found

   Cartesian axes

     site n.     atom                  positions (alat units)
         1           In  tau(   1) = (   0.0000000   0.0000000   0.0000000  )
         2           P   tau(   2) = (  -0.2500000   0.2500000   0.2500000  )

     number of k points=    60
                       cart. coord. in units 2pi/alat
        k(    1) = (  -0.0625000   0.0625000   0.0625000), wk =   0.0078125
        k(    2) = (  -0.1875000   0.1875000  -0.0625000), wk =   0.0234375
        k(    3) = (  -0.3125000   0.3125000  -0.1875000), wk =   0.0234375
        k(    4) = (  -0.4375000   0.4375000  -0.3125000), wk =   0.0234375
        k(    5) = (   0.4375000  -0.4375000   0.5625000), wk =   0.0234375
        k(    6) = (   0.3125000  -0.3125000   0.4375000), wk =   0.0234375
        k(    7) = (   0.1875000  -0.1875000   0.3125000), wk =   0.0234375
        k(    8) = (   0.0625000  -0.0625000   0.1875000), wk =   0.0234375
        k(    9) = (  -0.0625000   0.3125000   0.0625000), wk =   0.0234375
        k(   10) = (  -0.1875000   0.4375000  -0.0625000), wk =   0.0468750
        k(   11) = (  -0.3125000   0.5625000  -0.1875000), wk =   0.0468750
        k(   12) = (   0.5625000  -0.3125000   0.6875000), wk =   0.0468750
        k(   13) = (   0.4375000  -0.1875000   0.5625000), wk =   0.0468750
        k(   14) = (   0.3125000  -0.0625000   0.4375000), wk =   0.0468750
        k(   15) = (   0.1875000   0.0625000   0.3125000), wk =   0.0468750
        k(   16) = (  -0.0625000   0.5625000   0.0625000), wk =   0.0234375
        k(   17) = (  -0.1875000   0.6875000  -0.0625000), wk =   0.0468750
        k(   18) = (   0.6875000  -0.1875000   0.8125000), wk =   0.0468750
        k(   19) = (   0.5625000  -0.0625000   0.6875000), wk =   0.0468750
        k(   20) = (   0.4375000   0.0625000   0.5625000), wk =   0.0468750
        k(   21) = (   0.3125000   0.1875000   0.4375000), wk =   0.0468750
        k(   22) = (  -0.0625000   0.8125000   0.0625000), wk =   0.0234375
        k(   23) = (   0.8125000  -0.0625000   0.9375000), wk =   0.0468750
        k(   24) = (   0.6875000   0.0625000   0.8125000), wk =   0.0468750
        k(   25) = (   0.5625000   0.1875000   0.6875000), wk =   0.0468750
        k(   26) = (   0.4375000   0.3125000   0.5625000), wk =   0.0468750
        k(   27) = (  -0.0625000  -0.9375000   0.0625000), wk =   0.0234375
        k(   28) = (  -0.1875000  -0.8125000  -0.0625000), wk =   0.0468750
        k(   29) = (  -0.3125000  -0.6875000  -0.1875000), wk =   0.0468750
        k(   30) = (  -0.0625000  -0.6875000   0.0625000), wk =   0.0234375
        k(   31) = (  -0.1875000  -0.5625000  -0.0625000), wk =   0.0468750
        k(   32) = (  -0.0625000  -0.4375000   0.0625000), wk =   0.0234375
        k(   33) = (  -0.1875000   0.1875000   0.1875000), wk =   0.0078125
        k(   34) = (  -0.3125000   0.3125000   0.0625000), wk =   0.0234375
        k(   35) = (  -0.4375000   0.4375000  -0.0625000), wk =   0.0234375
        k(   36) = (   0.4375000  -0.4375000   0.8125000), wk =   0.0234375
        k(   37) = (   0.3125000  -0.3125000   0.6875000), wk =   0.0234375
        k(   38) = (   0.1875000  -0.1875000   0.5625000), wk =   0.0234375
        k(   39) = (  -0.1875000   0.4375000   0.1875000), wk =   0.0234375
        k(   40) = (  -0.3125000   0.5625000   0.0625000), wk =   0.0468750
        k(   41) = (   0.5625000  -0.3125000   0.9375000), wk =   0.0468750
        k(   42) = (   0.4375000  -0.1875000   0.8125000), wk =   0.0468750
        k(   43) = (   0.3125000  -0.0625000   0.6875000), wk =   0.0468750
        k(   44) = (  -0.1875000   0.6875000   0.1875000), wk =   0.0234375
        k(   45) = (   0.6875000  -0.1875000   1.0625000), wk =   0.0468750
        k(   46) = (   0.5625000  -0.0625000   0.9375000), wk =   0.0468750
        k(   47) = (   0.4375000   0.0625000   0.8125000), wk =   0.0468750
        k(   48) = (  -0.1875000  -1.0625000   0.1875000), wk =   0.0234375
        k(   49) = (  -0.3125000  -0.9375000   0.0625000), wk =   0.0468750
        k(   50) = (  -0.1875000  -0.8125000   0.1875000), wk =   0.0234375
        k(   51) = (  -0.3125000   0.3125000   0.3125000), wk =   0.0078125
        k(   52) = (  -0.4375000   0.4375000   0.1875000), wk =   0.0234375
        k(   53) = (   0.4375000  -0.4375000   1.0625000), wk =   0.0234375
        k(   54) = (   0.3125000  -0.3125000   0.9375000), wk =   0.0234375
        k(   55) = (  -0.3125000   0.5625000   0.3125000), wk =   0.0234375
        k(   56) = (   0.5625000  -0.3125000   1.1875000), wk =   0.0468750
        k(   57) = (   0.4375000  -0.1875000   1.0625000), wk =   0.0468750
        k(   58) = (  -0.3125000  -1.1875000   0.3125000), wk =   0.0234375
        k(   59) = (  -0.4375000   0.4375000   0.4375000), wk =   0.0078125
        k(   60) = (   0.4375000  -0.4375000   1.3125000), wk =   0.0234375

     Initial potential from superposition of free atoms

     starting charge       6.4757, renormalised to       8.0000
     Starting wfcs are   18 randomized atomic wfcs +   14 random wfcs

     Self-consistent Calculation

     iteration #  1     ecut=    80.00 Ry     beta= 0.15
     Davidson diagonalization with overlap
     ethr =  1.00E-02,  avg # of iterations =  6.8

     Threshold (ethr) on eigenvalues was too large:
     Diagonalizing with lowered threshold

     Davidson diagonalization with overlap
     ethr =  4.89E-04,  avg # of iterations =  1.9

     total energy              =     -17.42507120 Ry
     estimated scf accuracy    <       0.03922163 Ry

[...]

     iteration #  9     ecut=    80.00 Ry     beta= 0.15
     Davidson diagonalization with overlap
     c_bands:  1 eigenvalues not converged
     ethr =  1.29E-12,  avg # of iterations =  9.8

     total energy              =     -17.41987618 Ry
     estimated scf accuracy    <          2.3E-10 Ry

     iteration # 10     ecut=    80.00 Ry     beta= 0.15
     Davidson diagonalization with overlap
     ethr =  1.29E-12,  avg # of iterations =  2.1

     End of self-consistent calculation

          k =-0.0625 0.0625 0.0625 (  3821 PWs)   bands (ev):

    -7.4215   3.8424   4.3555   4.3555   6.0589   8.6012   8.6624   8.6624
    13.5720  13.7211  13.7211  15.7997  16.4432  16.4432  19.1694  26.2617
    26.4798  26.4798  28.5973  28.5973  29.5531  29.6539  29.6539  31.9905
    32.6074  32.6074  38.3560  39.3409  39.3409  39.6558  40.1509  40.1509

[...]

          k = 0.4375-0.4375 0.5625 (  3815 PWs)   bands (ev):

[...]

          k =-0.4375 0.4375 0.4375 (  3813 PWs)   bands (ev):

[...]

          k = 0.4375-0.4375 1.3125 (  3827 PWs)   bands (ev):

    -5.6632  -1.5432   2.3937   3.2004   7.0026   8.9580   9.7631  12.0082
    14.2894  14.7578  15.5150  16.9771  18.3898  19.1431  22.5401  24.2930
    24.4453  25.6626  27.0720  27.6058  27.6780  27.8237  30.3868  31.2213
    32.0409  32.6704  33.1160  33.3162  35.5516  36.2733  37.0794  37.4835

     highest occupied, lowest unoccupied level (ev):     4.3555    6.0589

!    total energy              =     -17.41987618 Ry
     estimated scf accuracy    <          1.4E-11 Ry

     The total energy is the sum of the following terms:
     one-electron contribution =       2.01784954 Ry
     hartree contribution      =       2.02634321 Ry
     xc contribution           =      -4.83926779 Ry
     ewald contribution        =     -16.62480114 Ry

     convergence has been achieved in  10 iterations

     Forces acting on atoms (cartesian axes, Ry/au):

     atom    1 type  1   force =     0.00000000    0.00000000    0.00000000
     atom    2 type  2   force =     0.00000000    0.00000000    0.00000000

     Total force =     0.000000     Total SCF correction =     0.000000

     Computing stress (Cartesian axis) and pressure

          total   stress  (Ry/bohr**3)                   (kbar)     P=       -0.03
  -0.00000022  -0.00000000  -0.00000000           -0.03       -0.00       -0.00
  -0.00000000  -0.00000022  -0.00000000           -0.00       -0.03       -0.00
   0.00000000   0.00000000  -0.00000022            0.00        0.00       -0.03

     Writing all to output data dir ./work/InP.save/

     General routines

     Parallel routines

   This run was terminated on:  20:30:30  30Jan2023

   JOB DONE.