     Program PWSCF v.7.1 starts on 30Jan2023 at 16:21:39

     Waiting for input...
     Reading input from standard input

     Current dimensions of program PWSCF are:
     Max number of different atomic species (ntypx) = 10
     Max number of k-points (npk) =  40000
     Max angular momentum in pseudopotentials (lmaxx) =  4

     R & G space division:  proc/nbgrp/npool/nimage =      20
     Subspace diagonalization in iterative solution of the eigenvalue problem:
     a serial algorithm will be used

     Using Slab Decomposition

     bravais-lattice index     =            2
     lattice parameter (alat)  =      11.0902  a.u.
     unit-cell volume          =     341.0062 (a.u.)^3
     number of atoms/cell      =            2
     number of atomic types    =            2
     number of electrons       =         8.00
     number of Kohn-Sham states=            4
     kinetic-energy cutoff     =      80.0000  Ry
     charge density cutoff     =     320.0000  Ry
     scf convergence threshold =      1.0E-10
     mixing beta               =       0.1500
     number of iterations used =            8  plain     mixing
     energy convergence thresh.=      1.0E-06
     force convergence thresh. =      1.0E-05
     press convergence thresh. =      5.0E-02
     Exchange-correlation= SLA-PZ-NOGX-NOGC
                           (   1   1   0   0   0   0   0)
     nstep                     =          100

     celldm(1)=  11.090236  celldm(2)=   0.000000  celldm(3)=   0.000000
     celldm(4)=   0.000000  celldm(5)=   0.000000  celldm(6)=   0.000000

     crystal axes: (cart. coord. in units of alat)
               a(1) = (  -0.500000   0.000000   0.500000 )
               a(2) = (   0.000000   0.500000   0.500000 )
               a(3) = (  -0.500000   0.500000   0.000000 )

     reciprocal axes: (cart. coord. in units 2 pi/alat)
               b(1) = ( -1.000000 -1.000000  1.000000 )
               b(2) = (  1.000000  1.000000  1.000000 )
               b(3) = ( -1.000000  1.000000 -1.000000 )

     PseudoPot. # 1 for In read from file:
     ../../pseudo/In.pz-hgh.upf
     MD5 check sum: 6872a669b76e2059a5c804d9a9b24c5c
     Pseudo is Norm-conserving, Zval =  3.0
     Generated in analytical, separable form
     Using radial grid of 1241 points,  6 beta functions with:
                l(1) =   0
                l(2) =   0
                l(3) =   0
                l(4) =   1
                l(5) =   1
                l(6) =   2

     PseudoPot. # 2 for P  read from file:
     ../../pseudo/P.pz-hgh.upf
     MD5 check sum: 95fb0514269fd57292f1f0e003240d1b
     Pseudo is Norm-conserving, Zval =  5.0
     Generated in analytical, separable form
     Using radial grid of 1147 points,  3 beta functions with:
                l(1) =   0
                l(2) =   0
                l(3) =   1

     atomic species   valence    mass     pseudopotential
        In             3.00   114.81800     In( 1.00)
        P              5.00    30.97376     P ( 1.00)

     24 Sym. Ops. (no inversion) found

   Cartesian axes

     site n.     atom                  positions (alat units)
         1           In  tau(   1) = (   0.0000000   0.0000000   0.0000000  )
         2           P   tau(   2) = (  -0.2500000   0.2500000   0.2500000  )

     number of k points=    60
                       cart. coord. in units 2pi/alat
        k(    1) = (  -0.0625000   0.0625000   0.0625000), wk =   0.0078125
        k(    2) = (  -0.1875000   0.1875000  -0.0625000), wk =   0.0234375
        k(    3) = (  -0.3125000   0.3125000  -0.1875000), wk =   0.0234375
        k(    4) = (  -0.4375000   0.4375000  -0.3125000), wk =   0.0234375
        k(    5) = (   0.4375000  -0.4375000   0.5625000), wk =   0.0234375
        k(    6) = (   0.3125000  -0.3125000   0.4375000), wk =   0.0234375
        k(    7) = (   0.1875000  -0.1875000   0.3125000), wk =   0.0234375
        k(    8) = (   0.0625000  -0.0625000   0.1875000), wk =   0.0234375
        k(    9) = (  -0.0625000   0.3125000   0.0625000), wk =   0.0234375
        k(   10) = (  -0.1875000   0.4375000  -0.0625000), wk =   0.0468750
        k(   11) = (  -0.3125000   0.5625000  -0.1875000), wk =   0.0468750
        k(   12) = (   0.5625000  -0.3125000   0.6875000), wk =   0.0468750
        k(   13) = (   0.4375000  -0.1875000   0.5625000), wk =   0.0468750
        k(   14) = (   0.3125000  -0.0625000   0.4375000), wk =   0.0468750
        k(   15) = (   0.1875000   0.0625000   0.3125000), wk =   0.0468750
        k(   16) = (  -0.0625000   0.5625000   0.0625000), wk =   0.0234375
        k(   17) = (  -0.1875000   0.6875000  -0.0625000), wk =   0.0468750
        k(   18) = (   0.6875000  -0.1875000   0.8125000), wk =   0.0468750
        k(   19) = (   0.5625000  -0.0625000   0.6875000), wk =   0.0468750
        k(   20) = (   0.4375000   0.0625000   0.5625000), wk =   0.0468750
        k(   21) = (   0.3125000   0.1875000   0.4375000), wk =   0.0468750
        k(   22) = (  -0.0625000   0.8125000   0.0625000), wk =   0.0234375
        k(   23) = (   0.8125000  -0.0625000   0.9375000), wk =   0.0468750
        k(   24) = (   0.6875000   0.0625000   0.8125000), wk =   0.0468750
        k(   25) = (   0.5625000   0.1875000   0.6875000), wk =   0.0468750
        k(   26) = (   0.4375000   0.3125000   0.5625000), wk =   0.0468750
        k(   27) = (  -0.0625000  -0.9375000   0.0625000), wk =   0.0234375
        k(   28) = (  -0.1875000  -0.8125000  -0.0625000), wk =   0.0468750
        k(   29) = (  -0.3125000  -0.6875000  -0.1875000), wk =   0.0468750
        k(   30) = (  -0.0625000  -0.6875000   0.0625000), wk =   0.0234375
        k(   31) = (  -0.1875000  -0.5625000  -0.0625000), wk =   0.0468750
        k(   32) = (  -0.0625000  -0.4375000   0.0625000), wk =   0.0234375
        k(   33) = (  -0.1875000   0.1875000   0.1875000), wk =   0.0078125
        k(   34) = (  -0.3125000   0.3125000   0.0625000), wk =   0.0234375
        k(   35) = (  -0.4375000   0.4375000  -0.0625000), wk =   0.0234375
        k(   36) = (   0.4375000  -0.4375000   0.8125000), wk =   0.0234375
        k(   37) = (   0.3125000  -0.3125000   0.6875000), wk =   0.0234375
        k(   38) = (   0.1875000  -0.1875000   0.5625000), wk =   0.0234375
        k(   39) = (  -0.1875000   0.4375000   0.1875000), wk =   0.0234375
        k(   40) = (  -0.3125000   0.5625000   0.0625000), wk =   0.0468750
        k(   41) = (   0.5625000  -0.3125000   0.9375000), wk =   0.0468750
        k(   42) = (   0.4375000  -0.1875000   0.8125000), wk =   0.0468750
        k(   43) = (   0.3125000  -0.0625000   0.6875000), wk =   0.0468750
        k(   44) = (  -0.1875000   0.6875000   0.1875000), wk =   0.0234375
        k(   45) = (   0.6875000  -0.1875000   1.0625000), wk =   0.0468750
        k(   46) = (   0.5625000  -0.0625000   0.9375000), wk =   0.0468750
        k(   47) = (   0.4375000   0.0625000   0.8125000), wk =   0.0468750
        k(   48) = (  -0.1875000  -1.0625000   0.1875000), wk =   0.0234375
        k(   49) = (  -0.3125000  -0.9375000   0.0625000), wk =   0.0468750
        k(   50) = (  -0.1875000  -0.8125000   0.1875000), wk =   0.0234375
        k(   51) = (  -0.3125000   0.3125000   0.3125000), wk =   0.0078125
        k(   52) = (  -0.4375000   0.4375000   0.1875000), wk =   0.0234375
        k(   53) = (   0.4375000  -0.4375000   1.0625000), wk =   0.0234375
        k(   54) = (   0.3125000  -0.3125000   0.9375000), wk =   0.0234375
        k(   55) = (  -0.3125000   0.5625000   0.3125000), wk =   0.0234375
        k(   56) = (   0.5625000  -0.3125000   1.1875000), wk =   0.0468750
        k(   57) = (   0.4375000  -0.1875000   1.0625000), wk =   0.0468750
        k(   58) = (  -0.3125000  -1.1875000   0.3125000), wk =   0.0234375
        k(   59) = (  -0.4375000   0.4375000   0.4375000), wk =   0.0078125
        k(   60) = (   0.4375000  -0.4375000   1.3125000), wk =   0.0234375

     Initial potential from superposition of free atoms

     starting charge       6.4757, renormalised to       8.0000
     Starting wfcs are   18 randomized atomic wfcs

     Self-consistent Calculation

     iteration #  1     ecut=    80.00 Ry     beta= 0.15
     Davidson diagonalization with overlap
     ethr =  1.00E-02,  avg # of iterations =  1.0

     Threshold (ethr) on eigenvalues was too large:
     Diagonalizing with lowered threshold

     Davidson diagonalization with overlap
     ethr =  5.06E-04,  avg # of iterations =  1.8

     total energy              =     -17.42146124 Ry
     estimated scf accuracy    <       0.04210227 Ry

[...]

     End of self-consistent calculation

          k =-0.0625 0.0625 0.0625 (  4117 PWs)   bands (ev):

    -7.6324   3.0942   3.6652   3.6652

[...]

          k = 0.4375-0.4375 0.5625 (  4117 PWs)   bands (ev):

[...]

     highest occupied level (ev):     3.6652

!    total energy              =     -17.41589083 Ry
     estimated scf accuracy    <          6.3E-11 Ry

     The total energy is the sum of the following terms:
     one-electron contribution =       1.45791116 Ry
     hartree contribution      =       2.12485868 Ry
     xc contribution           =      -4.77327156 Ry
     ewald contribution        =     -16.22538910 Ry

     convergence has been achieved in  16 iterations

     Computing stress (Cartesian axis) and pressure

          total   stress  (Ry/bohr**3)                   (kbar)     P=      -45.79
  -0.00031124   0.00000000  -0.00000000          -45.79        0.00       -0.00
  -0.00000000  -0.00031124   0.00000000           -0.00      -45.79        0.00
  -0.00000000   0.00000000  -0.00031124           -0.00        0.00      -45.79

     BFGS Geometry Optimization
     Energy error            =      0.0E+00 Ry
     Gradient error          =      0.0E+00 Ry/Bohr
     Cell gradient error     =      4.6E+01 kbar

     number of scf cycles    =   1
     number of bfgs steps    =   0

     enthalpy           new  =     -17.4158908293 Ry

     new trust radius        =       0.0287377809 bohr
ibrav =      2
 celldm(1) =     11.00394126
Input lattice vectors:
    -0.49610944     0.00000000     0.49610944
    -0.00000000     0.49610944     0.49610944
    -0.49610944     0.49610944     0.00000000
New lattice vectors in INITIAL alat:
    -0.49610944     0.00000000     0.49610944
     0.00000000     0.49610944     0.49610944
    -0.49610944     0.49610944     0.00000000
New lattice vectors in NEW alat (for information only):
    -0.50000000     0.00000000     0.50000000
     0.00000000     0.50000000     0.50000000
    -0.50000000     0.50000000     0.00000000
Discrepancy in bohr =     0.000000    0.000000    0.000000
     new conv_thr            =            1.0E-10 Ry

     new unit-cell volume =    333.10780 a.u.^3 (    49.36148 Ang^3 )
     density =      4.90449 g/cm^3

CELL_PARAMETERS (alat= 11.09023571)
  -0.496109440   0.000000000   0.496109440
   0.000000000   0.496109440   0.496109440
  -0.496109440   0.496109440   0.000000000

ATOMIC_POSITIONS (crystal)
In            0.0000000000        0.0000000000        0.0000000000    0   0   0
P             0.2500000000        0.2500000000        0.2500000000    0   0   0

     Writing config-only to output data dir ./work/InP.save/
     NEW-OLD atomic charge density approx. for the potential
     extrapolated charge    7.84645, renormalised to    8.00000

[...]

     Energy error            =      2.1E-03 Ry
     Gradient error          =      0.0E+00 Ry/Bohr
     Cell gradient error     =      3.3E+01 kbar

[...]

     enthalpy           old  =     -17.4158908293 Ry
     enthalpy           new  =     -17.4180082180 Ry

     CASE: enthalpy          _new < enthalpy          _old

[...]

     Energy error            =      1.3E-06 Ry
     Gradient error          =      0.0E+00 Ry/Bohr
     Cell gradient error     =      2.4E-02 kbar

     number of scf cycles    =   5
     number of bfgs steps    =   4

     enthalpy           old  =     -17.4198848702 Ry
     enthalpy           new  =     -17.4198862123 Ry

     CASE: enthalpy          _new < enthalpy          _old

     small trust_radius: resetting bfgs history

     new trust radius        =       0.0000144543 bohr
ibrav =      2
 celldm(1) =     10.82379234
Input lattice vectors:
    -0.48798748    -0.00000000     0.48798748
    -0.00000000     0.48798748     0.48798748
    -0.48798748     0.48798748     0.00000000
New lattice vectors in INITIAL alat:
    -0.48798748     0.00000000     0.48798748
     0.00000000     0.48798748     0.48798748
    -0.48798748     0.48798748     0.00000000
New lattice vectors in NEW alat (for information only):
    -0.50000000     0.00000000     0.50000000
     0.00000000     0.50000000     0.50000000
    -0.50000000     0.50000000     0.00000000
Discrepancy in bohr =     0.000000    0.000000    0.000000
     new conv_thr            =            1.0E-12 Ry

     new unit-cell volume =    317.01394 a.u.^3 (    46.97662 Ang^3 )
     density =      5.15348 g/cm^3

[...]

ATOMIC_POSITIONS (crystal)
In            0.0000000000        0.0000000000        0.0000000000    0   0   0
P             0.2500000000        0.2500000000        0.2500000000    0   0   0

     Writing config-only to output data dir ./work/InP.save/
     NEW-OLD atomic charge density approx. for the potential
     extrapolated charge    7.99992, renormalised to    8.00000

[...]

     Threshold (ethr) on eigenvalues was too large:
     Diagonalizing with lowered threshold

     Davidson diagonalization with overlap
     ethr =  1.84E-12,  avg # of iterations =  3.4

[...]

     Energy error            =      5.0E-10 Ry
     Gradient error          =      0.0E+00 Ry/Bohr
     Cell gradient error     =      1.5E-02 kbar
ibrav =      2
 celldm(1) =     10.82379234
Input lattice vectors:
    -0.48798748     0.00000000     0.48798748
     0.00000000     0.48798748     0.48798748
    -0.48798748     0.48798748     0.00000000
New lattice vectors in INITIAL alat:
    -0.48798748     0.00000000     0.48798748
     0.00000000     0.48798748     0.48798748
    -0.48798748     0.48798748     0.00000000
New lattice vectors in NEW alat (for information only):
    -0.50000000     0.00000000     0.50000000
     0.00000000     0.50000000     0.50000000
    -0.50000000     0.50000000     0.00000000
Discrepancy in bohr =     0.000000    0.000000    0.000000

     bfgs converged in   6 scf cycles and   5 bfgs steps
     (criteria: energy <  1.0E-06 Ry, force <  1.0E-05 Ry/Bohr, cell <  5.0E-02 kbar)

     End of BFGS Geometry Optimization

     Final enthalpy           =     -17.4198862128 Ry

     File ./work/InP.bfgs deleted, as requested
Begin final coordinates
     new unit-cell volume =    317.01394 a.u.^3 (    46.97662 Ang^3 )
     density =      5.15348 g/cm^3

CELL_PARAMETERS (alat= 11.09023571)
  -0.487987480   0.000000000   0.487987480
   0.000000000   0.487987480   0.487987480
  -0.487987480   0.487987480   0.000000000

ATOMIC_POSITIONS (crystal)
In            0.0000000000        0.0000000000        0.0000000000    0   0   0
P             0.2500000000        0.2500000000        0.2500000000    0   0   0
End final coordinates

     Writing config-only to output data dir ./work/InP.save/

     Final scf calculation at the relaxed structure.
     The G-vectors are recalculated for the final unit cell
     Results may differ from those at the preceding step.

     Using Slab Decomposition

     bravais-lattice index     =            2
     lattice parameter (alat)  =      11.0902  a.u.
     unit-cell volume          =     317.0139 (a.u.)^3
     number of atoms/cell      =            2
     number of atomic types    =            2
     number of electrons       =         8.00
     number of Kohn-Sham states=            4
     kinetic-energy cutoff     =      80.0000  Ry
     charge density cutoff     =     320.0000  Ry
     scf convergence threshold =      1.0E-12
     mixing beta               =       0.1500
     number of iterations used =            8  plain     mixing
     press convergence thresh. =      5.0E-02
     Exchange-correlation= SLA-PZ-NOGX-NOGC
                           (   1   1   0   0   0   0   0)

     celldm(1)=  11.090236  celldm(2)=   0.000000  celldm(3)=   0.000000
     celldm(4)=   0.000000  celldm(5)=   0.000000  celldm(6)=   0.000000

     crystal axes: (cart. coord. in units of alat)
               a(1) = (  -0.487987   0.000000   0.487987 )
               a(2) = (   0.000000   0.487987   0.487987 )
               a(3) = (  -0.487987   0.487987   0.000000 )

     reciprocal axes: (cart. coord. in units 2 pi/alat)
               b(1) = ( -1.024616 -1.024616  1.024616 )
               b(2) = (  1.024616  1.024616  1.024616 )
               b(3) = ( -1.024616  1.024616 -1.024616 )

     PseudoPot. # 1 for In read from file:
     ../../pseudo/In.pz-hgh.upf
     MD5 check sum: 6872a669b76e2059a5c804d9a9b24c5c
     Pseudo is Norm-conserving, Zval =  3.0
     Generated in analytical, separable form
     Using radial grid of 1241 points,  6 beta functions with:
                l(1) =   0
                l(2) =   0
                l(3) =   0
                l(4) =   1
                l(5) =   1
                l(6) =   2

     PseudoPot. # 2 for P  read from file:
     ../../pseudo/P.pz-hgh.upf
     MD5 check sum: 95fb0514269fd57292f1f0e003240d1b
     Pseudo is Norm-conserving, Zval =  5.0
     Generated in analytical, separable form
     Using radial grid of 1147 points,  3 beta functions with:
                l(1) =   0
                l(2) =   0
                l(3) =   1

     atomic species   valence    mass     pseudopotential
        In             3.00   114.81800     In( 1.00)
        P              5.00    30.97376     P ( 1.00)

     24 Sym. Ops. (no inversion) found

   Cartesian axes

     site n.     atom                  positions (alat units)
         1           In  tau(   1) = (   0.0000000   0.0000000   0.0000000  )
         2           P   tau(   2) = (  -0.2439937   0.2439937   0.2439937  )

     number of k points=    60
                       cart. coord. in units 2pi/alat
        k(    1) = (  -0.0640385   0.0640385   0.0640385), wk =   0.0078125
        k(    2) = (  -0.1921156   0.1921156  -0.0640385), wk =   0.0234375
        k(    3) = (  -0.3201926   0.3201926  -0.1921156), wk =   0.0234375
        k(    4) = (  -0.4482697   0.4482697  -0.3201926), wk =   0.0234375
        k(    5) = (   0.4482697  -0.4482697   0.5763468), wk =   0.0234375
        k(    6) = (   0.3201926  -0.3201926   0.4482697), wk =   0.0234375
        k(    7) = (   0.1921156  -0.1921156   0.3201926), wk =   0.0234375
        k(    8) = (   0.0640385  -0.0640385   0.1921156), wk =   0.0234375
        k(    9) = (  -0.0640385   0.3201926   0.0640385), wk =   0.0234375
        k(   10) = (  -0.1921156   0.4482697  -0.0640385), wk =   0.0468750
        k(   11) = (  -0.3201926   0.5763468  -0.1921156), wk =   0.0468750
        k(   12) = (   0.5763468  -0.3201926   0.7044238), wk =   0.0468750
        k(   13) = (   0.4482697  -0.1921156   0.5763468), wk =   0.0468750
        k(   14) = (   0.3201926  -0.0640385   0.4482697), wk =   0.0468750
        k(   15) = (   0.1921156   0.0640385   0.3201926), wk =   0.0468750
        k(   16) = (  -0.0640385   0.5763468   0.0640385), wk =   0.0234375
        k(   17) = (  -0.1921156   0.7044238  -0.0640385), wk =   0.0468750
        k(   18) = (   0.7044238  -0.1921156   0.8325009), wk =   0.0468750
        k(   19) = (   0.5763468  -0.0640385   0.7044238), wk =   0.0468750
        k(   20) = (   0.4482697   0.0640385   0.5763468), wk =   0.0468750
        k(   21) = (   0.3201926   0.1921156   0.4482697), wk =   0.0468750
        k(   22) = (  -0.0640385   0.8325009   0.0640385), wk =   0.0234375
        k(   23) = (   0.8325009  -0.0640385   0.9605779), wk =   0.0468750
        k(   24) = (   0.7044238   0.0640385   0.8325009), wk =   0.0468750
        k(   25) = (   0.5763468   0.1921156   0.7044238), wk =   0.0468750
        k(   26) = (   0.4482697   0.3201926   0.5763468), wk =   0.0468750
        k(   27) = (  -0.0640385  -0.9605779   0.0640385), wk =   0.0234375
        k(   28) = (  -0.1921156  -0.8325009  -0.0640385), wk =   0.0468750
        k(   29) = (  -0.3201926  -0.7044238  -0.1921156), wk =   0.0468750
        k(   30) = (  -0.0640385  -0.7044238   0.0640385), wk =   0.0234375
        k(   31) = (  -0.1921156  -0.5763468  -0.0640385), wk =   0.0468750
        k(   32) = (  -0.0640385  -0.4482697   0.0640385), wk =   0.0234375
        k(   33) = (  -0.1921156   0.1921156   0.1921156), wk =   0.0078125
        k(   34) = (  -0.3201926   0.3201926   0.0640385), wk =   0.0234375
        k(   35) = (  -0.4482697   0.4482697  -0.0640385), wk =   0.0234375
        k(   36) = (   0.4482697  -0.4482697   0.8325009), wk =   0.0234375
        k(   37) = (   0.3201926  -0.3201926   0.7044238), wk =   0.0234375
        k(   38) = (   0.1921156  -0.1921156   0.5763468), wk =   0.0234375
        k(   39) = (  -0.1921156   0.4482697   0.1921156), wk =   0.0234375
        k(   40) = (  -0.3201926   0.5763468   0.0640385), wk =   0.0468750
        k(   41) = (   0.5763468  -0.3201926   0.9605779), wk =   0.0468750
        k(   42) = (   0.4482697  -0.1921156   0.8325009), wk =   0.0468750
        k(   43) = (   0.3201926  -0.0640385   0.7044238), wk =   0.0468750
        k(   44) = (  -0.1921156   0.7044238   0.1921156), wk =   0.0234375
        k(   45) = (   0.7044238  -0.1921156   1.0886550), wk =   0.0468750
        k(   46) = (   0.5763468  -0.0640385   0.9605779), wk =   0.0468750
        k(   47) = (   0.4482697   0.0640385   0.8325009), wk =   0.0468750
        k(   48) = (  -0.1921156  -1.0886550   0.1921156), wk =   0.0234375
        k(   49) = (  -0.3201926  -0.9605779   0.0640385), wk =   0.0468750
        k(   50) = (  -0.1921156  -0.8325009   0.1921156), wk =   0.0234375
        k(   51) = (  -0.3201926   0.3201926   0.3201926), wk =   0.0078125
        k(   52) = (  -0.4482697   0.4482697   0.1921156), wk =   0.0234375
        k(   53) = (   0.4482697  -0.4482697   1.0886550), wk =   0.0234375
        k(   54) = (   0.3201926  -0.3201926   0.9605779), wk =   0.0234375
        k(   55) = (  -0.3201926   0.5763468   0.3201926), wk =   0.0234375
        k(   56) = (   0.5763468  -0.3201926   1.2167320), wk =   0.0468750
        k(   57) = (   0.4482697  -0.1921156   1.0886550), wk =   0.0468750
        k(   58) = (  -0.3201926  -1.2167320   0.3201926), wk =   0.0234375
        k(   59) = (  -0.4482697   0.4482697   0.4482697), wk =   0.0078125
        k(   60) = (   0.4482697  -0.4482697   1.3448091), wk =   0.0234375

     Initial potential from superposition of free atoms

     starting charge       6.4757, renormalised to       8.0000
     Starting wfcs are   18 randomized atomic wfcs

     Self-consistent Calculation

[...]

     total energy              =     -17.41987618 Ry
     estimated scf accuracy    <          2.2E-12 Ry

     iteration # 20     ecut=    80.00 Ry     beta= 0.15
     Davidson diagonalization with overlap
     ethr =  1.00E-13,  avg # of iterations =  1.0

     End of self-consistent calculation

[...]

          k =-0.4483 0.4483 0.4483 (  3813 PWs)   bands (ev):

[...]

          k = 0.4483-0.4483 1.3448 (  3827 PWs)   bands (ev):

    -5.6632  -1.5432   2.3937   3.2004

     highest occupied level (ev):     4.3555

!    total energy              =     -17.41987618 Ry
     estimated scf accuracy    <          6.1E-13 Ry

     The total energy is the sum of the following terms:
     one-electron contribution =       2.01785078 Ry
     hartree contribution      =       2.02634072 Ry
     xc contribution           =      -4.83926706 Ry
     ewald contribution        =     -16.62480061 Ry

     convergence has been achieved in  20 iterations

     Computing stress (Cartesian axis) and pressure

          total   stress  (Ry/bohr**3)                   (kbar)     P=       -0.03
  -0.00000023  -0.00000000  -0.00000000           -0.03       -0.00       -0.00
  -0.00000000  -0.00000023  -0.00000000           -0.00       -0.03       -0.00
  -0.00000000  -0.00000000  -0.00000023           -0.00       -0.00       -0.03

     Writing all to output data dir ./work/InP.save/

     General routines

     Parallel routines

   This run was terminated on:  16:22:10  30Jan2023

   JOB DONE.