     Program PWSCF v.7.1 starts on 23Feb2023 at 13:47:57

     Waiting for input...
     Reading input from standard input

     Current dimensions of program PWSCF are:
     Max number of different atomic species (ntypx) = 10
     Max number of k-points (npk) =  40000
     Max angular momentum in pseudopotentials (lmaxx) =  4

     R & G space division:  proc/nbgrp/npool/nimage =      16
     Subspace diagonalization in iterative solution of the eigenvalue problem:
     a serial algorithm will be used

     Using Slab Decomposition

     bravais-lattice index     =            2
     lattice parameter (alat)  =      11.5196  a.u.
     unit-cell volume          =     382.1699 (a.u.)^3
     number of atoms/cell      =            2
     number of atomic types    =            2
     number of electrons       =         8.00
     number of Kohn-Sham states=            4
     kinetic-energy cutoff     =      80.0000  Ry
     charge density cutoff     =     320.0000  Ry
     scf convergence threshold =      1.0E-09
     mixing beta               =       0.1500
     number of iterations used =            8  plain     mixing
     energy convergence thresh.=      1.0E-06
     force convergence thresh. =      1.0E-05
     press convergence thresh. =      5.0E-02
     Exchange-correlation= SLA-PZ-NOGX-NOGC
                           (   1   1   0   0   0   0   0)
     nstep                     =          100

     celldm(1)=  11.519638  celldm(2)=   0.000000  celldm(3)=   0.000000
     celldm(4)=   0.000000  celldm(5)=   0.000000  celldm(6)=   0.000000

     crystal axes: (cart. coord. in units of alat)
               a(1) = (  -0.500000   0.000000   0.500000 )
               a(2) = (   0.000000   0.500000   0.500000 )
               a(3) = (  -0.500000   0.500000   0.000000 )

     reciprocal axes: (cart. coord. in units 2 pi/alat)
               b(1) = ( -1.000000 -1.000000  1.000000 )
               b(2) = (  1.000000  1.000000  1.000000 )
               b(3) = ( -1.000000  1.000000 -1.000000 )

     PseudoPot. # 1 for Ga read from file:
     ../pseudo/Ga.pz-hgh.upf
     MD5 check sum: 9a76aebca20297769771d7f9bb2cf22c
     Pseudo is Norm-conserving, Zval =  3.0
     Generated in analytical, separable form
     Using radial grid of 1205 points,  6 beta functions with:
                l(1) =   0
                l(2) =   0
                l(3) =   0
                l(4) =   1
                l(5) =   1
                l(6) =   2

     PseudoPot. # 2 for Sb read from file:
     ../pseudo/Sb.pz-hgh.upf
     MD5 check sum: e4b141fc27dbe73d740b8d5d3061d4bd
     Pseudo is Norm-conserving, Zval =  5.0
     Generated in analytical, separable form
     Using radial grid of 1243 points,  6 beta functions with:
                l(1) =   0
                l(2) =   0
                l(3) =   0
                l(4) =   1
                l(5) =   1
                l(6) =   2

     atomic species   valence    mass     pseudopotential
        Ga             3.00    69.72300     Ga( 1.00)
        Sb             5.00   121.76000     Sb( 1.00)

     24 Sym. Ops. (no inversion) found

   Cartesian axes

     site n.     atom                  positions (alat units)
         1           Ga  tau(   1) = (   0.0000000   0.0000000   0.0000000  )
         2           Sb  tau(   2) = (  -0.2500000   0.2500000   0.2500000  )

     number of k points=    60
                       cart. coord. in units 2pi/alat
        k(    1) = (  -0.0625000   0.0625000   0.0625000), wk =   0.0078125
        k(    2) = (  -0.1875000   0.1875000  -0.0625000), wk =   0.0234375
        k(    3) = (  -0.3125000   0.3125000  -0.1875000), wk =   0.0234375
        k(    4) = (  -0.4375000   0.4375000  -0.3125000), wk =   0.0234375
        k(    5) = (   0.4375000  -0.4375000   0.5625000), wk =   0.0234375
        k(    6) = (   0.3125000  -0.3125000   0.4375000), wk =   0.0234375
        k(    7) = (   0.1875000  -0.1875000   0.3125000), wk =   0.0234375
        k(    8) = (   0.0625000  -0.0625000   0.1875000), wk =   0.0234375
        k(    9) = (  -0.0625000   0.3125000   0.0625000), wk =   0.0234375
        k(   10) = (  -0.1875000   0.4375000  -0.0625000), wk =   0.0468750
        k(   11) = (  -0.3125000   0.5625000  -0.1875000), wk =   0.0468750
        k(   12) = (   0.5625000  -0.3125000   0.6875000), wk =   0.0468750
        k(   13) = (   0.4375000  -0.1875000   0.5625000), wk =   0.0468750
        k(   14) = (   0.3125000  -0.0625000   0.4375000), wk =   0.0468750
        k(   15) = (   0.1875000   0.0625000   0.3125000), wk =   0.0468750
        k(   16) = (  -0.0625000   0.5625000   0.0625000), wk =   0.0234375
        k(   17) = (  -0.1875000   0.6875000  -0.0625000), wk =   0.0468750
        k(   18) = (   0.6875000  -0.1875000   0.8125000), wk =   0.0468750
        k(   19) = (   0.5625000  -0.0625000   0.6875000), wk =   0.0468750
        k(   20) = (   0.4375000   0.0625000   0.5625000), wk =   0.0468750
        k(   21) = (   0.3125000   0.1875000   0.4375000), wk =   0.0468750
        k(   22) = (  -0.0625000   0.8125000   0.0625000), wk =   0.0234375
        k(   23) = (   0.8125000  -0.0625000   0.9375000), wk =   0.0468750
        k(   24) = (   0.6875000   0.0625000   0.8125000), wk =   0.0468750
        k(   25) = (   0.5625000   0.1875000   0.6875000), wk =   0.0468750
        k(   26) = (   0.4375000   0.3125000   0.5625000), wk =   0.0468750
        k(   27) = (  -0.0625000  -0.9375000   0.0625000), wk =   0.0234375
        k(   28) = (  -0.1875000  -0.8125000  -0.0625000), wk =   0.0468750
        k(   29) = (  -0.3125000  -0.6875000  -0.1875000), wk =   0.0468750
        k(   30) = (  -0.0625000  -0.6875000   0.0625000), wk =   0.0234375
        k(   31) = (  -0.1875000  -0.5625000  -0.0625000), wk =   0.0468750
        k(   32) = (  -0.0625000  -0.4375000   0.0625000), wk =   0.0234375
        k(   33) = (  -0.1875000   0.1875000   0.1875000), wk =   0.0078125
        k(   34) = (  -0.3125000   0.3125000   0.0625000), wk =   0.0234375
        k(   35) = (  -0.4375000   0.4375000  -0.0625000), wk =   0.0234375
        k(   36) = (   0.4375000  -0.4375000   0.8125000), wk =   0.0234375
        k(   37) = (   0.3125000  -0.3125000   0.6875000), wk =   0.0234375
        k(   38) = (   0.1875000  -0.1875000   0.5625000), wk =   0.0234375
        k(   39) = (  -0.1875000   0.4375000   0.1875000), wk =   0.0234375
        k(   40) = (  -0.3125000   0.5625000   0.0625000), wk =   0.0468750
        k(   41) = (   0.5625000  -0.3125000   0.9375000), wk =   0.0468750
        k(   42) = (   0.4375000  -0.1875000   0.8125000), wk =   0.0468750
        k(   43) = (   0.3125000  -0.0625000   0.6875000), wk =   0.0468750
        k(   44) = (  -0.1875000   0.6875000   0.1875000), wk =   0.0234375
        k(   45) = (   0.6875000  -0.1875000   1.0625000), wk =   0.0468750
        k(   46) = (   0.5625000  -0.0625000   0.9375000), wk =   0.0468750
        k(   47) = (   0.4375000   0.0625000   0.8125000), wk =   0.0468750
        k(   48) = (  -0.1875000  -1.0625000   0.1875000), wk =   0.0234375
        k(   49) = (  -0.3125000  -0.9375000   0.0625000), wk =   0.0468750
        k(   50) = (  -0.1875000  -0.8125000   0.1875000), wk =   0.0234375
        k(   51) = (  -0.3125000   0.3125000   0.3125000), wk =   0.0078125
        k(   52) = (  -0.4375000   0.4375000   0.1875000), wk =   0.0234375
        k(   53) = (   0.4375000  -0.4375000   1.0625000), wk =   0.0234375
        k(   54) = (   0.3125000  -0.3125000   0.9375000), wk =   0.0234375
        k(   55) = (  -0.3125000   0.5625000   0.3125000), wk =   0.0234375
        k(   56) = (   0.5625000  -0.3125000   1.1875000), wk =   0.0468750
        k(   57) = (   0.4375000  -0.1875000   1.0625000), wk =   0.0468750
        k(   58) = (  -0.3125000  -1.1875000   0.3125000), wk =   0.0234375
        k(   59) = (  -0.4375000   0.4375000   0.4375000), wk =   0.0078125
        k(   60) = (   0.4375000  -0.4375000   1.3125000), wk =   0.0234375

     Initial potential from superposition of free atoms

     starting charge       6.0000, renormalised to       8.0000
     Starting wfcs are   18 randomized atomic wfcs

     Self-consistent Calculation

     iteration #  1     ecut=    80.00 Ry     beta= 0.15
     Davidson diagonalization with overlap
     ethr =  1.00E-02,  avg # of iterations =  1.0

     total energy              =     -15.79065950 Ry
     estimated scf accuracy    <       0.10361171 Ry

[...]

     End of self-consistent calculation

          k =-0.0625 0.0625 0.0625 (  4630 PWs)   bands (ev):

    -7.0888   3.4387   4.3176   4.3176

[...]

          k = 0.4375-0.4375 0.5625 (  4593 PWs)   bands (ev):

[...]

     highest occupied level (ev):     4.3176

!    total energy              =     -15.77222470 Ry
     estimated scf accuracy    <          4.7E-11 Ry

     The total energy is the sum of the following terms:
     one-electron contribution =       3.09516311 Ry
     hartree contribution      =       1.14908132 Ry
     xc contribution           =      -4.39589260 Ry
     ewald contribution        =     -15.62057652 Ry

     convergence has been achieved in  29 iterations

     Computing stress (Cartesian axis) and pressure

          total   stress  (Ry/bohr**3)                   (kbar)     P=      -28.79
  -0.00019572  -0.00000000   0.00000000          -28.79       -0.00        0.00
  -0.00000000  -0.00019572   0.00000000           -0.00      -28.79        0.00
   0.00000000   0.00000000  -0.00019572            0.00        0.00      -28.79

     BFGS Geometry Optimization
     Energy error            =      0.0E+00 Ry
     Gradient error          =      0.0E+00 Ry/Bohr
     Cell gradient error     =      2.9E+01 kbar

     number of scf cycles    =   1
     number of bfgs steps    =   0

     enthalpy           new  =     -15.7722246989 Ry

     new trust radius        =       0.0191303463 bohr
ibrav =      2
 celldm(1) =     11.46327397
Input lattice vectors:
    -0.49755356     0.00000000     0.49755356
     0.00000000     0.49755356     0.49755356
    -0.49755356     0.49755356     0.00000000
New lattice vectors in INITIAL alat:
    -0.49755356     0.00000000     0.49755356
     0.00000000     0.49755356     0.49755356
    -0.49755356     0.49755356     0.00000000
New lattice vectors in NEW alat (for information only):
    -0.50000000     0.00000000     0.50000000
     0.00000000     0.50000000     0.50000000
    -0.50000000     0.50000000     0.00000000
Discrepancy in bohr =     0.000000    0.000000    0.000000
     new conv_thr            =       0.0000000010 Ry

     new unit-cell volume =    376.58761 a.u.^3 (    55.80453 Ang^3 )
     density =      5.69784 g/cm^3

CELL_PARAMETERS (alat= 11.51963817)
  -0.497553560   0.000000000   0.497553560
   0.000000000   0.497553560   0.497553560
  -0.497553560   0.497553560   0.000000000

ATOMIC_POSITIONS (crystal)
Ga            0.0000000000        0.0000000000        0.0000000000    0   0   0
Sb            0.2500000000        0.2500000000        0.2500000000    0   0   0

     Writing config-only to output data dir ./work/GaSb.save/
     NEW-OLD atomic charge density approx. for the potential
     extrapolated charge    7.91106, renormalised to    8.00000

[...]

     Energy error            =      9.7E-04 Ry
     Gradient error          =      0.0E+00 Ry/Bohr
     Cell gradient error     =      2.2E+01 kbar

[...]

     enthalpy           old  =     -15.7722246989 Ry
     enthalpy           new  =     -15.7731947294 Ry

     CASE: enthalpy          _new < enthalpy          _old

[...]

     Threshold (ethr) on eigenvalues was too large:
     Diagonalizing with lowered threshold

     Davidson diagonalization with overlap
     ethr =  1.70E-08,  avg # of iterations =  3.8

[...]

     Energy error            =      2.2E-06 Ry
     Gradient error          =      0.0E+00 Ry/Bohr
     Cell gradient error     =      4.0E-02 kbar

     number of scf cycles    =   5
     number of bfgs steps    =   4

     enthalpy           old  =     -15.7744474462 Ry
     enthalpy           new  =     -15.7744496956 Ry

     CASE: enthalpy          _new < enthalpy          _old

     small trust_radius: resetting bfgs history

     new trust radius        =       0.0000256559 bohr
ibrav =      2
 celldm(1) =     11.29941599
Input lattice vectors:
    -0.49044145     0.00000000     0.49044145
    -0.00000000     0.49044145     0.49044145
    -0.49044145     0.49044145     0.00000000
New lattice vectors in INITIAL alat:
    -0.49044145     0.00000000     0.49044145
     0.00000000     0.49044145     0.49044145
    -0.49044145     0.49044145     0.00000000
New lattice vectors in NEW alat (for information only):
    -0.50000000     0.00000000     0.50000000
     0.00000000     0.50000000     0.50000000
    -0.50000000     0.50000000     0.00000000
Discrepancy in bohr =     0.000000    0.000000    0.000000
     new conv_thr            =            1.0E-11 Ry

     new unit-cell volume =    360.66832 a.u.^3 (    53.44553 Ang^3 )
     density =      5.94933 g/cm^3

[...]

ATOMIC_POSITIONS (crystal)
Ga            0.0000000000        0.0000000000        0.0000000000    0   0   0
Sb            0.2500000000        0.2500000000        0.2500000000    0   0   0

     Writing config-only to output data dir ./work/GaSb.save/
     NEW-OLD atomic charge density approx. for the potential
     extrapolated charge    7.99988, renormalised to    8.00000

[...]

     Threshold (ethr) on eigenvalues was too large:
     Diagonalizing with lowered threshold

     Davidson diagonalization with overlap
     ethr =  1.90E-12,  avg # of iterations =  3.9

[...]

     Energy error            =      1.7E-09 Ry
     Gradient error          =      0.0E+00 Ry/Bohr
     Cell gradient error     =      2.8E-02 kbar
ibrav =      2
 celldm(1) =     11.29941599
Input lattice vectors:
    -0.49044145     0.00000000     0.49044145
     0.00000000     0.49044145     0.49044145
    -0.49044145     0.49044145     0.00000000
New lattice vectors in INITIAL alat:
    -0.49044145     0.00000000     0.49044145
     0.00000000     0.49044145     0.49044145
    -0.49044145     0.49044145     0.00000000
New lattice vectors in NEW alat (for information only):
    -0.50000000     0.00000000     0.50000000
     0.00000000     0.50000000     0.50000000
    -0.50000000     0.50000000     0.00000000
Discrepancy in bohr =     0.000000    0.000000    0.000000

     bfgs converged in   6 scf cycles and   5 bfgs steps
     (criteria: energy <  1.0E-06 Ry, force <  1.0E-05 Ry/Bohr, cell <  5.0E-02 kbar)

     End of BFGS Geometry Optimization

     Final enthalpy           =     -15.7744496973 Ry

     File ./work/GaSb.bfgs deleted, as requested
Begin final coordinates
     new unit-cell volume =    360.66832 a.u.^3 (    53.44553 Ang^3 )
     density =      5.94933 g/cm^3

CELL_PARAMETERS (alat= 11.51963817)
  -0.490441445   0.000000000   0.490441445
   0.000000000   0.490441445   0.490441445
  -0.490441445   0.490441445   0.000000000

ATOMIC_POSITIONS (crystal)
Ga            0.0000000000        0.0000000000        0.0000000000    0   0   0
Sb            0.2500000000        0.2500000000        0.2500000000    0   0   0
End final coordinates

     Writing config-only to output data dir ./work/GaSb.save/

     Final scf calculation at the relaxed structure.
     The G-vectors are recalculated for the final unit cell
     Results may differ from those at the preceding step.

     Using Slab Decomposition

     bravais-lattice index     =            2
     lattice parameter (alat)  =      11.5196  a.u.
     unit-cell volume          =     360.6683 (a.u.)^3
     number of atoms/cell      =            2
     number of atomic types    =            2
     number of electrons       =         8.00
     number of Kohn-Sham states=            4
     kinetic-energy cutoff     =      80.0000  Ry
     charge density cutoff     =     320.0000  Ry
     scf convergence threshold =      1.0E-11
     mixing beta               =       0.1500
     number of iterations used =            8  plain     mixing
     press convergence thresh. =      5.0E-02
     Exchange-correlation= SLA-PZ-NOGX-NOGC
                           (   1   1   0   0   0   0   0)

     celldm(1)=  11.519638  celldm(2)=   0.000000  celldm(3)=   0.000000
     celldm(4)=   0.000000  celldm(5)=   0.000000  celldm(6)=   0.000000

     crystal axes: (cart. coord. in units of alat)
               a(1) = (  -0.490441   0.000000   0.490441 )
               a(2) = (   0.000000   0.490441   0.490441 )
               a(3) = (  -0.490441   0.490441   0.000000 )

     reciprocal axes: (cart. coord. in units 2 pi/alat)
               b(1) = ( -1.019490 -1.019490  1.019490 )
               b(2) = (  1.019490  1.019490  1.019490 )
               b(3) = ( -1.019490  1.019490 -1.019490 )

     PseudoPot. # 1 for Ga read from file:
     ../pseudo/Ga.pz-hgh.upf
     MD5 check sum: 9a76aebca20297769771d7f9bb2cf22c
     Pseudo is Norm-conserving, Zval =  3.0
     Generated in analytical, separable form
     Using radial grid of 1205 points,  6 beta functions with:
                l(1) =   0
                l(2) =   0
                l(3) =   0
                l(4) =   1
                l(5) =   1
                l(6) =   2

     PseudoPot. # 2 for Sb read from file:
     ../pseudo/Sb.pz-hgh.upf
     MD5 check sum: e4b141fc27dbe73d740b8d5d3061d4bd
     Pseudo is Norm-conserving, Zval =  5.0
     Generated in analytical, separable form
     Using radial grid of 1243 points,  6 beta functions with:
                l(1) =   0
                l(2) =   0
                l(3) =   0
                l(4) =   1
                l(5) =   1
                l(6) =   2

     atomic species   valence    mass     pseudopotential
        Ga             3.00    69.72300     Ga( 1.00)
        Sb             5.00   121.76000     Sb( 1.00)

     24 Sym. Ops. (no inversion) found

   Cartesian axes

     site n.     atom                  positions (alat units)
         1           Ga  tau(   1) = (   0.0000000   0.0000000   0.0000000  )
         2           Sb  tau(   2) = (  -0.2452207   0.2452207   0.2452207  )

     number of k points=    60
                       cart. coord. in units 2pi/alat
        k(    1) = (  -0.0637181   0.0637181   0.0637181), wk =   0.0078125
        k(    2) = (  -0.1911543   0.1911543  -0.0637181), wk =   0.0234375
        k(    3) = (  -0.3185905   0.3185905  -0.1911543), wk =   0.0234375
        k(    4) = (  -0.4460267   0.4460267  -0.3185905), wk =   0.0234375
        k(    5) = (   0.4460267  -0.4460267   0.5734630), wk =   0.0234375
        k(    6) = (   0.3185905  -0.3185905   0.4460267), wk =   0.0234375
        k(    7) = (   0.1911543  -0.1911543   0.3185905), wk =   0.0234375
        k(    8) = (   0.0637181  -0.0637181   0.1911543), wk =   0.0234375
        k(    9) = (  -0.0637181   0.3185905   0.0637181), wk =   0.0234375
        k(   10) = (  -0.1911543   0.4460267  -0.0637181), wk =   0.0468750
        k(   11) = (  -0.3185905   0.5734630  -0.1911543), wk =   0.0468750
        k(   12) = (   0.5734630  -0.3185905   0.7008992), wk =   0.0468750
        k(   13) = (   0.4460267  -0.1911543   0.5734630), wk =   0.0468750
        k(   14) = (   0.3185905  -0.0637181   0.4460267), wk =   0.0468750
        k(   15) = (   0.1911543   0.0637181   0.3185905), wk =   0.0468750
        k(   16) = (  -0.0637181   0.5734630   0.0637181), wk =   0.0234375
        k(   17) = (  -0.1911543   0.7008992  -0.0637181), wk =   0.0468750
        k(   18) = (   0.7008992  -0.1911543   0.8283354), wk =   0.0468750
        k(   19) = (   0.5734630  -0.0637181   0.7008992), wk =   0.0468750
        k(   20) = (   0.4460267   0.0637181   0.5734630), wk =   0.0468750
        k(   21) = (   0.3185905   0.1911543   0.4460267), wk =   0.0468750
        k(   22) = (  -0.0637181   0.8283354   0.0637181), wk =   0.0234375
        k(   23) = (   0.8283354  -0.0637181   0.9557716), wk =   0.0468750
        k(   24) = (   0.7008992   0.0637181   0.8283354), wk =   0.0468750
        k(   25) = (   0.5734630   0.1911543   0.7008992), wk =   0.0468750
        k(   26) = (   0.4460267   0.3185905   0.5734630), wk =   0.0468750
        k(   27) = (  -0.0637181  -0.9557716   0.0637181), wk =   0.0234375
        k(   28) = (  -0.1911543  -0.8283354  -0.0637181), wk =   0.0468750
        k(   29) = (  -0.3185905  -0.7008992  -0.1911543), wk =   0.0468750
        k(   30) = (  -0.0637181  -0.7008992   0.0637181), wk =   0.0234375
        k(   31) = (  -0.1911543  -0.5734630  -0.0637181), wk =   0.0468750
        k(   32) = (  -0.0637181  -0.4460267   0.0637181), wk =   0.0234375
        k(   33) = (  -0.1911543   0.1911543   0.1911543), wk =   0.0078125
        k(   34) = (  -0.3185905   0.3185905   0.0637181), wk =   0.0234375
        k(   35) = (  -0.4460267   0.4460267  -0.0637181), wk =   0.0234375
        k(   36) = (   0.4460267  -0.4460267   0.8283354), wk =   0.0234375
        k(   37) = (   0.3185905  -0.3185905   0.7008992), wk =   0.0234375
        k(   38) = (   0.1911543  -0.1911543   0.5734630), wk =   0.0234375
        k(   39) = (  -0.1911543   0.4460267   0.1911543), wk =   0.0234375
        k(   40) = (  -0.3185905   0.5734630   0.0637181), wk =   0.0468750
        k(   41) = (   0.5734630  -0.3185905   0.9557716), wk =   0.0468750
        k(   42) = (   0.4460267  -0.1911543   0.8283354), wk =   0.0468750
        k(   43) = (   0.3185905  -0.0637181   0.7008992), wk =   0.0468750
        k(   44) = (  -0.1911543   0.7008992   0.1911543), wk =   0.0234375
        k(   45) = (   0.7008992  -0.1911543   1.0832078), wk =   0.0468750
        k(   46) = (   0.5734630  -0.0637181   0.9557716), wk =   0.0468750
        k(   47) = (   0.4460267   0.0637181   0.8283354), wk =   0.0468750
        k(   48) = (  -0.1911543  -1.0832078   0.1911543), wk =   0.0234375
        k(   49) = (  -0.3185905  -0.9557716   0.0637181), wk =   0.0468750
        k(   50) = (  -0.1911543  -0.8283354   0.1911543), wk =   0.0234375
        k(   51) = (  -0.3185905   0.3185905   0.3185905), wk =   0.0078125
        k(   52) = (  -0.4460267   0.4460267   0.1911543), wk =   0.0234375
        k(   53) = (   0.4460267  -0.4460267   1.0832078), wk =   0.0234375
        k(   54) = (   0.3185905  -0.3185905   0.9557716), wk =   0.0234375
        k(   55) = (  -0.3185905   0.5734630   0.3185905), wk =   0.0234375
        k(   56) = (   0.5734630  -0.3185905   1.2106440), wk =   0.0468750
        k(   57) = (   0.4460267  -0.1911543   1.0832078), wk =   0.0468750
        k(   58) = (  -0.3185905  -1.2106440   0.3185905), wk =   0.0234375
        k(   59) = (  -0.4460267   0.4460267   0.4460267), wk =   0.0078125
        k(   60) = (   0.4460267  -0.4460267   1.3380802), wk =   0.0234375

     Initial potential from superposition of free atoms

     starting charge       6.0000, renormalised to       8.0000
     Starting wfcs are   18 randomized atomic wfcs

     Self-consistent Calculation

[...]

     total energy              =     -15.77444967 Ry
     estimated scf accuracy    <          1.2E-10 Ry

     iteration # 28     ecut=    80.00 Ry     beta= 0.15
     Davidson diagonalization with overlap
     ethr =  1.62E-13,  avg # of iterations =  4.1

     End of self-consistent calculation

[...]

          k =-0.4460 0.4460 0.4460 (  4368 PWs)   bands (ev):

[...]

          k = 0.4460-0.4460 1.3381 (  4359 PWs)   bands (ev):

    -5.1226  -1.6344   2.5500   3.5361

     highest occupied level (ev):     4.8896

!    total energy              =     -15.77444967 Ry
     estimated scf accuracy    <          8.2E-12 Ry

     The total energy is the sum of the following terms:
     one-electron contribution =       3.50936352 Ry
     hartree contribution      =       1.08894496 Ry
     xc contribution           =      -4.44774134 Ry
     ewald contribution        =     -15.92501681 Ry

     convergence has been achieved in  28 iterations

     Computing stress (Cartesian axis) and pressure

          total   stress  (Ry/bohr**3)                   (kbar)     P=       -0.03
  -0.00000020   0.00000000   0.00000000           -0.03        0.00        0.00
   0.00000000  -0.00000020   0.00000000            0.00       -0.03        0.00
   0.00000000   0.00000000  -0.00000020            0.00        0.00       -0.03

     Writing all to output data dir ./work/GaSb.save/

     General routines

     Parallel routines

   This run was terminated on:  13:49: 2  23Feb2023

   JOB DONE.