     Program PWSCF v.7.1 starts on 30Jan2023 at 16:21: 2

     Waiting for input...
     Reading input from standard input

     Current dimensions of program PWSCF are:
     Max number of different atomic species (ntypx) = 10
     Max number of k-points (npk) =  40000
     Max angular momentum in pseudopotentials (lmaxx) =  4

     R & G space division:  proc/nbgrp/npool/nimage =      20
     Subspace diagonalization in iterative solution of the eigenvalue problem:
     a serial algorithm will be used

     Using Slab Decomposition

     bravais-lattice index     =            2
     lattice parameter (alat)  =      11.4485  a.u.
     unit-cell volume          =     375.1362 (a.u.)^3
     number of atoms/cell      =            2
     number of atomic types    =            2
     number of electrons       =         8.00
     number of Kohn-Sham states=            4
     kinetic-energy cutoff     =      80.0000  Ry
     charge density cutoff     =     320.0000  Ry
     scf convergence threshold =      1.0E-10
     mixing beta               =       0.1500
     number of iterations used =            8  plain     mixing
     energy convergence thresh.=      1.0E-06
     force convergence thresh. =      1.0E-05
     press convergence thresh. =      5.0E-02
     Exchange-correlation= SLA-PZ-NOGX-NOGC
                           (   1   1   0   0   0   0   0)
     nstep                     =          100

     celldm(1)=  11.448528  celldm(2)=   0.000000  celldm(3)=   0.000000
     celldm(4)=   0.000000  celldm(5)=   0.000000  celldm(6)=   0.000000

     crystal axes: (cart. coord. in units of alat)
               a(1) = (  -0.500000   0.000000   0.500000 )
               a(2) = (   0.000000   0.500000   0.500000 )
               a(3) = (  -0.500000   0.500000   0.000000 )

     reciprocal axes: (cart. coord. in units 2 pi/alat)
               b(1) = ( -1.000000 -1.000000  1.000000 )
               b(2) = (  1.000000  1.000000  1.000000 )
               b(3) = ( -1.000000  1.000000 -1.000000 )

     PseudoPot. # 1 for In read from file:
     ../../pseudo/In.pz-hgh.upf
     MD5 check sum: 6872a669b76e2059a5c804d9a9b24c5c
     Pseudo is Norm-conserving, Zval =  3.0
     Generated in analytical, separable form
     Using radial grid of 1241 points,  6 beta functions with:
                l(1) =   0
                l(2) =   0
                l(3) =   0
                l(4) =   1
                l(5) =   1
                l(6) =   2

     PseudoPot. # 2 for As read from file:
     ../../pseudo/As.pz-hgh.upf
     MD5 check sum: 8bce9ee3be4f31c0b3268c76e624ca74
     Pseudo is Norm-conserving, Zval =  5.0
     Generated in analytical, separable form
     Using radial grid of 1209 points,  6 beta functions with:
                l(1) =   0
                l(2) =   0
                l(3) =   0
                l(4) =   1
                l(5) =   1
                l(6) =   2

     atomic species   valence    mass     pseudopotential
        In             3.00   114.81800     In( 1.00)
        As             5.00    74.92160     As( 1.00)

     24 Sym. Ops. (no inversion) found

   Cartesian axes

     site n.     atom                  positions (alat units)
         1           In  tau(   1) = (   0.0000000   0.0000000   0.0000000  )
         2           As  tau(   2) = (  -0.2500000   0.2500000   0.2500000  )

     number of k points=    60
                       cart. coord. in units 2pi/alat
        k(    1) = (  -0.0625000   0.0625000   0.0625000), wk =   0.0078125
        k(    2) = (  -0.1875000   0.1875000  -0.0625000), wk =   0.0234375
        k(    3) = (  -0.3125000   0.3125000  -0.1875000), wk =   0.0234375
        k(    4) = (  -0.4375000   0.4375000  -0.3125000), wk =   0.0234375
        k(    5) = (   0.4375000  -0.4375000   0.5625000), wk =   0.0234375
        k(    6) = (   0.3125000  -0.3125000   0.4375000), wk =   0.0234375
        k(    7) = (   0.1875000  -0.1875000   0.3125000), wk =   0.0234375
        k(    8) = (   0.0625000  -0.0625000   0.1875000), wk =   0.0234375
        k(    9) = (  -0.0625000   0.3125000   0.0625000), wk =   0.0234375
        k(   10) = (  -0.1875000   0.4375000  -0.0625000), wk =   0.0468750
        k(   11) = (  -0.3125000   0.5625000  -0.1875000), wk =   0.0468750
        k(   12) = (   0.5625000  -0.3125000   0.6875000), wk =   0.0468750
        k(   13) = (   0.4375000  -0.1875000   0.5625000), wk =   0.0468750
        k(   14) = (   0.3125000  -0.0625000   0.4375000), wk =   0.0468750
        k(   15) = (   0.1875000   0.0625000   0.3125000), wk =   0.0468750
        k(   16) = (  -0.0625000   0.5625000   0.0625000), wk =   0.0234375
        k(   17) = (  -0.1875000   0.6875000  -0.0625000), wk =   0.0468750
        k(   18) = (   0.6875000  -0.1875000   0.8125000), wk =   0.0468750
        k(   19) = (   0.5625000  -0.0625000   0.6875000), wk =   0.0468750
        k(   20) = (   0.4375000   0.0625000   0.5625000), wk =   0.0468750
        k(   21) = (   0.3125000   0.1875000   0.4375000), wk =   0.0468750
        k(   22) = (  -0.0625000   0.8125000   0.0625000), wk =   0.0234375
        k(   23) = (   0.8125000  -0.0625000   0.9375000), wk =   0.0468750
        k(   24) = (   0.6875000   0.0625000   0.8125000), wk =   0.0468750
        k(   25) = (   0.5625000   0.1875000   0.6875000), wk =   0.0468750
        k(   26) = (   0.4375000   0.3125000   0.5625000), wk =   0.0468750
        k(   27) = (  -0.0625000  -0.9375000   0.0625000), wk =   0.0234375
        k(   28) = (  -0.1875000  -0.8125000  -0.0625000), wk =   0.0468750
        k(   29) = (  -0.3125000  -0.6875000  -0.1875000), wk =   0.0468750
        k(   30) = (  -0.0625000  -0.6875000   0.0625000), wk =   0.0234375
        k(   31) = (  -0.1875000  -0.5625000  -0.0625000), wk =   0.0468750
        k(   32) = (  -0.0625000  -0.4375000   0.0625000), wk =   0.0234375
        k(   33) = (  -0.1875000   0.1875000   0.1875000), wk =   0.0078125
        k(   34) = (  -0.3125000   0.3125000   0.0625000), wk =   0.0234375
        k(   35) = (  -0.4375000   0.4375000  -0.0625000), wk =   0.0234375
        k(   36) = (   0.4375000  -0.4375000   0.8125000), wk =   0.0234375
        k(   37) = (   0.3125000  -0.3125000   0.6875000), wk =   0.0234375
        k(   38) = (   0.1875000  -0.1875000   0.5625000), wk =   0.0234375
        k(   39) = (  -0.1875000   0.4375000   0.1875000), wk =   0.0234375
        k(   40) = (  -0.3125000   0.5625000   0.0625000), wk =   0.0468750
        k(   41) = (   0.5625000  -0.3125000   0.9375000), wk =   0.0468750
        k(   42) = (   0.4375000  -0.1875000   0.8125000), wk =   0.0468750
        k(   43) = (   0.3125000  -0.0625000   0.6875000), wk =   0.0468750
        k(   44) = (  -0.1875000   0.6875000   0.1875000), wk =   0.0234375
        k(   45) = (   0.6875000  -0.1875000   1.0625000), wk =   0.0468750
        k(   46) = (   0.5625000  -0.0625000   0.9375000), wk =   0.0468750
        k(   47) = (   0.4375000   0.0625000   0.8125000), wk =   0.0468750
        k(   48) = (  -0.1875000  -1.0625000   0.1875000), wk =   0.0234375
        k(   49) = (  -0.3125000  -0.9375000   0.0625000), wk =   0.0468750
        k(   50) = (  -0.1875000  -0.8125000   0.1875000), wk =   0.0234375
        k(   51) = (  -0.3125000   0.3125000   0.3125000), wk =   0.0078125
        k(   52) = (  -0.4375000   0.4375000   0.1875000), wk =   0.0234375
        k(   53) = (   0.4375000  -0.4375000   1.0625000), wk =   0.0234375
        k(   54) = (   0.3125000  -0.3125000   0.9375000), wk =   0.0234375
        k(   55) = (  -0.3125000   0.5625000   0.3125000), wk =   0.0234375
        k(   56) = (   0.5625000  -0.3125000   1.1875000), wk =   0.0468750
        k(   57) = (   0.4375000  -0.1875000   1.0625000), wk =   0.0468750
        k(   58) = (  -0.3125000  -1.1875000   0.3125000), wk =   0.0234375
        k(   59) = (  -0.4375000   0.4375000   0.4375000), wk =   0.0078125
        k(   60) = (   0.4375000  -0.4375000   1.3125000), wk =   0.0234375

     Initial potential from superposition of free atoms

     starting charge       6.0000, renormalised to       8.0000
     Starting wfcs are   18 randomized atomic wfcs

     Self-consistent Calculation

     iteration #  1     ecut=    80.00 Ry     beta= 0.15
     Davidson diagonalization with overlap
     ethr =  1.00E-02,  avg # of iterations =  1.1

     total energy              =     -16.94924637 Ry
     estimated scf accuracy    <       0.15028865 Ry

[...]

     negative rho (up, down):  9.167E-08 0.000E+00

[...]

     negative rho (up, down):  2.080E-08 0.000E+00

[...]

     End of self-consistent calculation

          k =-0.0625 0.0625 0.0625 (  4567 PWs)   bands (ev):

    -8.1735   2.5723   3.5119   3.5119

[...]

          k = 0.4375-0.4375 0.5625 (  4523 PWs)   bands (ev):

[...]

     highest occupied level (ev):     3.5119

!    total energy              =     -16.92241961 Ry
     estimated scf accuracy    <          7.1E-11 Ry

     The total energy is the sum of the following terms:
     one-electron contribution =       1.52130956 Ry
     hartree contribution      =       1.87717352 Ry
     xc contribution           =      -4.60330187 Ry
     ewald contribution        =     -15.71760082 Ry

     convergence has been achieved in  27 iterations

     Computing stress (Cartesian axis) and pressure

          total   stress  (Ry/bohr**3)                   (kbar)     P=      -36.70
  -0.00024946   0.00000000   0.00000000          -36.70        0.00        0.00
   0.00000000  -0.00024946  -0.00000000            0.00      -36.70       -0.00
   0.00000000  -0.00000000  -0.00024946            0.00       -0.00      -36.70

     BFGS Geometry Optimization
     Energy error            =      0.0E+00 Ry
     Gradient error          =      0.0E+00 Ry/Bohr
     Cell gradient error     =      3.7E+01 kbar

     number of scf cycles    =   1
     number of bfgs steps    =   0

     enthalpy           new  =     -16.9224196123 Ry

     new trust radius        =       0.0241585013 bohr
ibrav =      2
 celldm(1) =     11.37712828
Input lattice vectors:
    -0.49688172    -0.00000000     0.49688172
     0.00000000     0.49688172     0.49688172
    -0.49688172     0.49688172    -0.00000000
New lattice vectors in INITIAL alat:
    -0.49688172     0.00000000     0.49688172
     0.00000000     0.49688172     0.49688172
    -0.49688172     0.49688172     0.00000000
New lattice vectors in NEW alat (for information only):
    -0.50000000     0.00000000     0.50000000
     0.00000000     0.50000000     0.50000000
    -0.50000000     0.50000000     0.00000000
Discrepancy in bohr =     0.000000    0.000000    0.000000
     new conv_thr            =            1.0E-10 Ry

     new unit-cell volume =    368.16116 a.u.^3 (    54.55586 Ang^3 )
     density =      5.77518 g/cm^3

CELL_PARAMETERS (alat= 11.44852778)
  -0.496881717   0.000000000   0.496881717
   0.000000000   0.496881717   0.496881717
  -0.496881717   0.496881717   0.000000000

ATOMIC_POSITIONS (crystal)
In            0.0000000000        0.0000000000        0.0000000000    0   0   0
As            0.2500000000        0.2500000000        0.2500000000    0   0   0

     Writing config-only to output data dir ./work/InAs.save/
     NEW-OLD atomic charge density approx. for the potential
     extrapolated charge    7.88633, renormalised to    8.00000

[...]

     Energy error            =      1.5E-03 Ry
     Gradient error          =      0.0E+00 Ry/Bohr
     Cell gradient error     =      2.8E+01 kbar

[...]

     enthalpy           old  =     -16.9224196123 Ry
     enthalpy           new  =     -16.9239567001 Ry

     CASE: enthalpy          _new < enthalpy          _old

[...]

     Threshold (ethr) on eigenvalues was too large:
     Diagonalizing with lowered threshold

     Davidson diagonalization with overlap
     ethr =  5.82E-08,  avg # of iterations =  2.5

[...]

     Energy error            =      3.5E-06 Ry
     Gradient error          =      0.0E+00 Ry/Bohr
     Cell gradient error     =      5.6E-02 kbar

     number of scf cycles    =   5
     number of bfgs steps    =   4

     enthalpy           old  =     -16.9257700702 Ry
     enthalpy           new  =     -16.9257736045 Ry

     CASE: enthalpy          _new < enthalpy          _old

     new trust radius        =       0.0001113788 bohr
ibrav =      2
 celldm(1) =     11.18625292
Input lattice vectors:
    -0.48854548    -0.00000000     0.48854548
     0.00000000     0.48854548     0.48854548
    -0.48854548     0.48854548    -0.00000000
New lattice vectors in INITIAL alat:
    -0.48854548     0.00000000     0.48854548
     0.00000000     0.48854548     0.48854548
    -0.48854548     0.48854548     0.00000000
New lattice vectors in NEW alat (for information only):
    -0.50000000     0.00000000     0.50000000
     0.00000000     0.50000000     0.50000000
    -0.50000000     0.50000000     0.00000000
Discrepancy in bohr =     0.000000    0.000000    0.000000
     new conv_thr            =            1.0E-12 Ry

     new unit-cell volume =    349.94026 a.u.^3 (    51.85580 Ang^3 )
     density =      6.07589 g/cm^3

[...]

ATOMIC_POSITIONS (crystal)
In            0.0000000000        0.0000000000        0.0000000000    0   0   0
As            0.2500000000        0.2500000000        0.2500000000    0   0   0

     Writing config-only to output data dir ./work/InAs.save/
     NEW-OLD atomic charge density approx. for the potential
     extrapolated charge    7.99946, renormalised to    8.00000

[...]

     Threshold (ethr) on eigenvalues was too large:
     Diagonalizing with lowered threshold

     Davidson diagonalization with overlap
     ethr =  8.48E-11,  avg # of iterations =  3.4

[...]

     Energy error            =      6.0E-09 Ry
     Gradient error          =      0.0E+00 Ry/Bohr
     Cell gradient error     =      2.3E-04 kbar
ibrav =      2
 celldm(1) =     11.18625292
Input lattice vectors:
    -0.48854548     0.00000000     0.48854548
     0.00000000     0.48854548     0.48854548
    -0.48854548     0.48854548     0.00000000
New lattice vectors in INITIAL alat:
    -0.48854548     0.00000000     0.48854548
     0.00000000     0.48854548     0.48854548
    -0.48854548     0.48854548     0.00000000
New lattice vectors in NEW alat (for information only):
    -0.50000000     0.00000000     0.50000000
     0.00000000     0.50000000     0.50000000
    -0.50000000     0.50000000     0.00000000
Discrepancy in bohr =     0.000000    0.000000    0.000000

     bfgs converged in   6 scf cycles and   5 bfgs steps
     (criteria: energy <  1.0E-06 Ry, force <  1.0E-05 Ry/Bohr, cell <  5.0E-02 kbar)

     End of BFGS Geometry Optimization

     Final enthalpy           =     -16.9257736105 Ry

     File ./work/InAs.bfgs deleted, as requested
Begin final coordinates
     new unit-cell volume =    349.94026 a.u.^3 (    51.85580 Ang^3 )
     density =      6.07589 g/cm^3

CELL_PARAMETERS (alat= 11.44852778)
  -0.488545477   0.000000000   0.488545477
   0.000000000   0.488545477   0.488545477
  -0.488545477   0.488545477   0.000000000

ATOMIC_POSITIONS (crystal)
In            0.0000000000        0.0000000000        0.0000000000    0   0   0
As            0.2500000000        0.2500000000        0.2500000000    0   0   0
End final coordinates

     Writing config-only to output data dir ./work/InAs.save/

     Final scf calculation at the relaxed structure.
     The G-vectors are recalculated for the final unit cell
     Results may differ from those at the preceding step.

     Using Slab Decomposition

     bravais-lattice index     =            2
     lattice parameter (alat)  =      11.4485  a.u.
     unit-cell volume          =     349.9403 (a.u.)^3
     number of atoms/cell      =            2
     number of atomic types    =            2
     number of electrons       =         8.00
     number of Kohn-Sham states=            4
     kinetic-energy cutoff     =      80.0000  Ry
     charge density cutoff     =     320.0000  Ry
     scf convergence threshold =      1.0E-12
     mixing beta               =       0.1500
     number of iterations used =            8  plain     mixing
     press convergence thresh. =      5.0E-02
     Exchange-correlation= SLA-PZ-NOGX-NOGC
                           (   1   1   0   0   0   0   0)

     celldm(1)=  11.448528  celldm(2)=   0.000000  celldm(3)=   0.000000
     celldm(4)=   0.000000  celldm(5)=   0.000000  celldm(6)=   0.000000

     crystal axes: (cart. coord. in units of alat)
               a(1) = (  -0.488545   0.000000   0.488545 )
               a(2) = (   0.000000   0.488545   0.488545 )
               a(3) = (  -0.488545   0.488545   0.000000 )

     reciprocal axes: (cart. coord. in units 2 pi/alat)
               b(1) = ( -1.023446 -1.023446  1.023446 )
               b(2) = (  1.023446  1.023446  1.023446 )
               b(3) = ( -1.023446  1.023446 -1.023446 )

     PseudoPot. # 1 for In read from file:
     ../../pseudo/In.pz-hgh.upf
     MD5 check sum: 6872a669b76e2059a5c804d9a9b24c5c
     Pseudo is Norm-conserving, Zval =  3.0
     Generated in analytical, separable form
     Using radial grid of 1241 points,  6 beta functions with:
                l(1) =   0
                l(2) =   0
                l(3) =   0
                l(4) =   1
                l(5) =   1
                l(6) =   2

     PseudoPot. # 2 for As read from file:
     ../../pseudo/As.pz-hgh.upf
     MD5 check sum: 8bce9ee3be4f31c0b3268c76e624ca74
     Pseudo is Norm-conserving, Zval =  5.0
     Generated in analytical, separable form
     Using radial grid of 1209 points,  6 beta functions with:
                l(1) =   0
                l(2) =   0
                l(3) =   0
                l(4) =   1
                l(5) =   1
                l(6) =   2

     atomic species   valence    mass     pseudopotential
        In             3.00   114.81800     In( 1.00)
        As             5.00    74.92160     As( 1.00)

     24 Sym. Ops. (no inversion) found

   Cartesian axes

     site n.     atom                  positions (alat units)
         1           In  tau(   1) = (   0.0000000   0.0000000   0.0000000  )
         2           As  tau(   2) = (  -0.2442727   0.2442727   0.2442727  )

     number of k points=    60
                       cart. coord. in units 2pi/alat
        k(    1) = (  -0.0639654   0.0639654   0.0639654), wk =   0.0078125
        k(    2) = (  -0.1918962   0.1918962  -0.0639654), wk =   0.0234375
        k(    3) = (  -0.3198269   0.3198269  -0.1918962), wk =   0.0234375
        k(    4) = (  -0.4477577   0.4477577  -0.3198269), wk =   0.0234375
        k(    5) = (   0.4477577  -0.4477577   0.5756885), wk =   0.0234375
        k(    6) = (   0.3198269  -0.3198269   0.4477577), wk =   0.0234375
        k(    7) = (   0.1918962  -0.1918962   0.3198269), wk =   0.0234375
        k(    8) = (   0.0639654  -0.0639654   0.1918962), wk =   0.0234375
        k(    9) = (  -0.0639654   0.3198269   0.0639654), wk =   0.0234375
        k(   10) = (  -0.1918962   0.4477577  -0.0639654), wk =   0.0468750
        k(   11) = (  -0.3198269   0.5756885  -0.1918962), wk =   0.0468750
        k(   12) = (   0.5756885  -0.3198269   0.7036192), wk =   0.0468750
        k(   13) = (   0.4477577  -0.1918962   0.5756885), wk =   0.0468750
        k(   14) = (   0.3198269  -0.0639654   0.4477577), wk =   0.0468750
        k(   15) = (   0.1918962   0.0639654   0.3198269), wk =   0.0468750
        k(   16) = (  -0.0639654   0.5756885   0.0639654), wk =   0.0234375
        k(   17) = (  -0.1918962   0.7036192  -0.0639654), wk =   0.0468750
        k(   18) = (   0.7036192  -0.1918962   0.8315500), wk =   0.0468750
        k(   19) = (   0.5756885  -0.0639654   0.7036192), wk =   0.0468750
        k(   20) = (   0.4477577   0.0639654   0.5756885), wk =   0.0468750
        k(   21) = (   0.3198269   0.1918962   0.4477577), wk =   0.0468750
        k(   22) = (  -0.0639654   0.8315500   0.0639654), wk =   0.0234375
        k(   23) = (   0.8315500  -0.0639654   0.9594808), wk =   0.0468750
        k(   24) = (   0.7036192   0.0639654   0.8315500), wk =   0.0468750
        k(   25) = (   0.5756885   0.1918962   0.7036192), wk =   0.0468750
        k(   26) = (   0.4477577   0.3198269   0.5756885), wk =   0.0468750
        k(   27) = (  -0.0639654  -0.9594808   0.0639654), wk =   0.0234375
        k(   28) = (  -0.1918962  -0.8315500  -0.0639654), wk =   0.0468750
        k(   29) = (  -0.3198269  -0.7036192  -0.1918962), wk =   0.0468750
        k(   30) = (  -0.0639654  -0.7036192   0.0639654), wk =   0.0234375
        k(   31) = (  -0.1918962  -0.5756885  -0.0639654), wk =   0.0468750
        k(   32) = (  -0.0639654  -0.4477577   0.0639654), wk =   0.0234375
        k(   33) = (  -0.1918962   0.1918962   0.1918962), wk =   0.0078125
        k(   34) = (  -0.3198269   0.3198269   0.0639654), wk =   0.0234375
        k(   35) = (  -0.4477577   0.4477577  -0.0639654), wk =   0.0234375
        k(   36) = (   0.4477577  -0.4477577   0.8315500), wk =   0.0234375
        k(   37) = (   0.3198269  -0.3198269   0.7036192), wk =   0.0234375
        k(   38) = (   0.1918962  -0.1918962   0.5756885), wk =   0.0234375
        k(   39) = (  -0.1918962   0.4477577   0.1918962), wk =   0.0234375
        k(   40) = (  -0.3198269   0.5756885   0.0639654), wk =   0.0468750
        k(   41) = (   0.5756885  -0.3198269   0.9594808), wk =   0.0468750
        k(   42) = (   0.4477577  -0.1918962   0.8315500), wk =   0.0468750
        k(   43) = (   0.3198269  -0.0639654   0.7036192), wk =   0.0468750
        k(   44) = (  -0.1918962   0.7036192   0.1918962), wk =   0.0234375
        k(   45) = (   0.7036192  -0.1918962   1.0874116), wk =   0.0468750
        k(   46) = (   0.5756885  -0.0639654   0.9594808), wk =   0.0468750
        k(   47) = (   0.4477577   0.0639654   0.8315500), wk =   0.0468750
        k(   48) = (  -0.1918962  -1.0874116   0.1918962), wk =   0.0234375
        k(   49) = (  -0.3198269  -0.9594808   0.0639654), wk =   0.0468750
        k(   50) = (  -0.1918962  -0.8315500   0.1918962), wk =   0.0234375
        k(   51) = (  -0.3198269   0.3198269   0.3198269), wk =   0.0078125
        k(   52) = (  -0.4477577   0.4477577   0.1918962), wk =   0.0234375
        k(   53) = (   0.4477577  -0.4477577   1.0874116), wk =   0.0234375
        k(   54) = (   0.3198269  -0.3198269   0.9594808), wk =   0.0234375
        k(   55) = (  -0.3198269   0.5756885   0.3198269), wk =   0.0234375
        k(   56) = (   0.5756885  -0.3198269   1.2153423), wk =   0.0468750
        k(   57) = (   0.4477577  -0.1918962   1.0874116), wk =   0.0468750
        k(   58) = (  -0.3198269  -1.2153423   0.3198269), wk =   0.0234375
        k(   59) = (  -0.4477577   0.4477577   0.4477577), wk =   0.0078125
        k(   60) = (   0.4477577  -0.4477577   1.3432731), wk =   0.0234375

     Initial potential from superposition of free atoms

     starting charge       6.0000, renormalised to       8.0000
     Starting wfcs are   18 randomized atomic wfcs

     Self-consistent Calculation

[...]

     total energy              =     -16.92576857 Ry
     estimated scf accuracy    <          9.9E-12 Ry

     iteration # 28     ecut=    80.00 Ry     beta= 0.15
     Davidson diagonalization with overlap
     ethr =  1.24E-13,  avg # of iterations =  2.7

     End of self-consistent calculation

[...]

          k =-0.4478 0.4478 0.4478 (  4230 PWs)   bands (ev):

[...]

          k = 0.4478-0.4478 1.3433 (  4231 PWs)   bands (ev):

    -6.5081  -1.7494   2.1315   2.9888

     highest occupied level (ev):     4.1548

!    total energy              =     -16.92576857 Ry
     estimated scf accuracy    <          7.5E-13 Ry

     The total energy is the sum of the following terms:
     one-electron contribution =       2.03683277 Ry
     hartree contribution      =       1.78757707 Ry
     xc contribution           =      -4.66405995 Ry
     ewald contribution        =     -16.08611846 Ry

     convergence has been achieved in  28 iterations

     Computing stress (Cartesian axis) and pressure

          total   stress  (Ry/bohr**3)                   (kbar)     P=       -0.02
  -0.00000011   0.00000000  -0.00000000           -0.02        0.00       -0.00
   0.00000000  -0.00000011   0.00000000            0.00       -0.02        0.00
  -0.00000000   0.00000000  -0.00000011           -0.00        0.00       -0.02

     Writing all to output data dir ./work/InAs.save/

     General routines

     Parallel routines

   This run was terminated on:  16:21:37  30Jan2023

   JOB DONE.